%NPROCS=4
# opt=(MaxCycle=1000) freq B3LYP/6-31G(d)

 ./chairs/1/glo_2w_beta_ircr_chair_B3LYP_631Gd.out

0  1
C           0.88956         0.20896        -1.71951
O           0.81923         0.36392         0.76484
O           2.09270         0.13300        -1.89196
H           2.97931         1.66677        -1.64113
H           1.15014         3.56527         0.55011
H           4.27493         2.25915        -1.03922
O           3.36974         2.50241        -1.28557
H           2.43134         2.80527         0.12322
O           1.76339         2.88171         0.85887
H           1.13433         1.29931         0.89201
C          -0.02262        -1.00902        -1.69157
C          -1.28518        -0.83909        -0.82538
C          -1.11494        -1.01068         0.69290
C          -0.44194         0.18564         1.37554
H           0.37104         1.18715        -1.72408
H           0.55763        -1.88139        -1.35928
H          -0.51065        -1.91383         0.88052
H          -1.09413         1.06533         1.22885
H          -1.71917         0.15801        -1.01877
O          -0.41683        -1.13887        -3.05506
O          -2.17798        -1.84588        -1.29647
O          -2.44314        -1.18855         1.18883
H          -2.86047        -1.93619        -0.60689
H          -1.24763        -1.64867        -3.03140
H          -2.38055        -1.18324         2.16486
C          -0.23717        -0.04511         2.88363
O          -1.45825        -0.31004         3.59513
H           0.29124         0.81368         3.31907
H           0.38995        -0.92991         3.02512
H          -1.95269         0.52270         3.65999

