%chk=D:\Dropbox\My Dropbox\Sajat gyujtes\Hehre MOLMOD\01\BeH2.chk
#p opt freq b3lyp/6-31g(d,p) guess=(local,save) geom=connectivity

BeH2

0 1
 Be                 5.39103489   -0.60763374    0.00000000
 H                  6.58103489   -0.60763374    0.00000000
 H                  4.20103489   -0.60763374    0.00000000

 1 2 1.0 3 1.0
 2
 3

