%chk=D:\Dropbox\My Dropbox\Sajat gyujtes\Hehre MOLMOD\01\CH4.chk
#p opt freq b3lyp/6-31g(d,p) guess=(local,save) geom=connectivity

CH4

0 1
 C                  5.06935127   -0.55192123   -0.54740869
 H                  6.00570377   -0.17651093   -0.90407536
 H                  4.27606017    0.07127867   -0.90407536
 H                  4.92628988   -1.55053143   -0.90407536
 H                  5.06935127   -0.55192123    0.52259131

 1 2 1.0 3 1.0 4 1.0 5 1.0
 2
 3
 4
 5

