%chk=D:\Dropbox\My Dropbox\Sajat gyujtes\Hehre MOLMOD\01\FH.chk
#p opt freq b3lyp/6-31g(d,p) guess=(local,save) geom=connectivity

FH

0 1
 F                  5.61024639   -0.82075603    0.00000000
 H                  6.49024639   -0.82075603    0.00000000

 1 2 1.0
 2

