%chk=D:\Dropbox\My Dropbox\Sajat gyujtes\Hehre MOLMOD\01\H2.chk
#p opt freq b3lyp/6-31g(d,p) guess=(local,save) geom=connectivity

H2

0 1
 H                  4.48181818   -0.27272727    0.00000000
 H                  3.88181818   -0.27272727    0.00000000

 1 2 1.0
 2

