# b3lyp/6-31g(d) irc=(calcfc,forward)

ircf_glo_1w_alpha_boat1_b3lyp_631Gd_iopt

0 1
1           0       -1.332129    1.381882    1.461880
6           0       -1.240559    0.869422    0.497210
6           0        0.842670   -0.183860   -0.533810
6           0       -1.299801   -1.518948   -0.221060
6           0       -0.209561   -1.055549   -1.223050
8           0       -1.512170   -0.496468    0.802300
6           0        0.199831    1.108321   -0.024400
1           0       -0.694300   -0.442898   -2.004660
1           0        0.176062    1.834771   -0.844610
6           0       -2.314229    1.482923   -0.408710
1           0       -3.300849    1.222494   -0.000490
1           0       -2.250159    1.082993   -1.431720
1           0        1.236070   -0.734920    0.331000
8           0       -2.083737    2.889253   -0.389050
1           0       -2.707537    3.310143   -0.998960
8           0        0.397638   -2.185509   -1.802670
1           0        1.230099   -1.840500   -2.176160
8           0        1.866350    0.047629   -1.487340
1           0        2.677511    0.310769   -0.992630
8           0        1.048252    1.618130    1.033850
1           0        0.719392    2.500060    1.273230
1           0       -2.249351   -1.684087   -0.741080
8           0       -1.023542   -2.697368    0.431510
1           0       -0.172922   -2.609419    0.906370
8           0        0.490739   -1.562379    2.572150
1           0       -0.352481   -1.141299    2.316810
1           0        1.117140   -0.822600    2.603390
8           0        3.699981    1.140618    0.249890
1           0        2.879821    1.469619    0.677850
1           0        4.085432    1.917898   -0.182400

