# hf/6-31g opt freq

Title Card Required

0 1
 C                 -1.04571427    1.69142854    0.00000000
 O                  0.21268573    1.69142854    0.00000000
 O                 -2.30411427    1.69142854    0.00000000


