# hf/6-31g opt freq

Title Card Required

0 1
 O                  1.04571427    1.69142854    0.00000000
 H                  2.00571427    1.69142854    0.00000000
 H                  0.72525968    2.59636437    0.00000000


