# hf/6-31g  opt freq

Title Card Required

0 1
 O                 -1.05425791    1.44957360   -0.10711141
 O                 -2.21585791    1.44957360   -0.10711141

