%NPROCS=4
# opt=(MaxCycle=1000) freq B3LYP/6-31G(d)

 ./chairs/2/glo_2w_alpha_ircf_chair2_B3LYP_631Gd.out

0  1
C          -0.81455        -0.61454        -0.64047
O          -0.61162         0.33403         0.55145
C           0.33946        -1.62974        -0.61184
C           1.72902        -0.98952        -0.41191
C           1.75708        -0.04348         0.79762
C           0.65487         1.02144         0.70749
H           0.33190        -2.16816        -1.57643
H           2.72550         0.46288         0.83152
H           0.60008         1.48127         1.69982
H           2.45479        -1.79276        -0.22910
O           0.09845        -2.54036         0.45403
O           2.09941        -0.22580        -1.56827
O           1.63800        -0.78932         1.99615
H           2.21732        -0.82918        -2.31810
H          -0.87796        -2.58054         0.51187
H           0.93738        -1.45226         1.84174
C           0.83787         2.12340        -0.36929
O           2.19420         2.47018        -0.58819
H           0.32717         3.03309        -0.03802
H           0.35859         1.80632        -1.30378
H           2.56550         1.73637        -1.10900
H          -0.79131         0.00991        -1.54089
O          -1.98659        -1.26455        -0.45298
H          -2.79876        -0.66678        -0.66291
H          -1.78773         1.15173         0.79999
O          -3.84802         0.29788        -0.76236
H          -4.67235        -0.09347        -0.43854
O          -2.65569         1.65649         0.87973
H          -2.95890         1.50740         1.78764
H          -3.50573         0.94411        -0.05189

