%NPROCS=4
# opt=(MaxCycle=1000) freq B3LYP/6-31G(d)

 ./chairs/2/glo_2w_beta_ircf_chair2_B3LYP_631Gd.out

0  1
C           0.51168        -1.27422         0.34508
O           0.46359        -0.32902        -1.03216
C          -0.97095        -1.54683         0.61464
C          -1.73680        -0.21872         0.79440
C          -1.71196         0.62572        -0.49912
C          -0.28148         0.93407        -0.97167
H          -0.99813        -2.09751         1.56628
H          -2.17880         1.59003        -0.28616
H          -0.37478         1.23563        -2.01918
H          -2.78424        -0.44928         1.01605
O          -1.61820        -2.29767        -0.41063
O          -1.19559         0.50973         1.89808
O          -2.47974         0.02974        -1.52925
H          -0.25793         0.21042         1.99387
H          -1.06370        -3.06187        -0.63463
H          -2.23152        -0.91256        -1.55502
C           0.48158         2.02526        -0.15489
O          -0.37724         2.88801         0.56043
H           1.03896         2.66241        -0.85111
H           1.20657         1.53846         0.50560
H          -0.77065         2.33585         1.26749
O           1.11618        -0.69366         1.32256
H           2.62710        -0.55710         1.12890
H           1.02787        -2.11503        -0.16092
H           1.46114        -0.17309        -1.33491
O           3.56819        -0.42613         0.76782
H           4.05731        -1.23727         0.96986
O           2.85361        -0.06362        -1.61175
H           3.11043         0.82997        -1.88633
H           3.28826        -0.21615        -0.69694

