%NPROCS=4
# opt=(calcfc,ts,noeigentest,maxcycle=1000,cartesian) b3lyp 6-31g(d) freq

boat3_Beta_B3LYP_6-31G_d

0 1
 C                 -0.95662932    0.86157505    0.49843915
 C                  1.33683568    0.09905305   -0.44915685
 O                 -0.10574032   -1.42771295    1.08353915
 C                  1.51017818   -0.97975885    0.48642567
 C                 -1.10509332   -0.60102595    0.41639115
 C                  0.43873668    1.24845105   -0.01724985
 H                  2.08349318   -0.73825485    1.38819967
 H                  0.97132068    1.81404205    0.75952815
 H                  1.07513168   -0.25645895   -1.44856385
 H                 -1.99292632   -0.82185695    1.02734115
 H                 -1.74096932    1.38703605   -0.05683785
 C                 -1.48770232   -1.17371495   -0.96338485
 H                 -1.51271032   -2.26909395   -0.93613085
 H                 -0.79095832   -0.89728995   -1.75303085
 O                  2.03268383   -2.02577794   -0.03437363
 O                 -2.76983432   -0.69176495   -1.36184585
 H                 -3.42994032   -1.32875295   -1.03355685
 O                  2.69399968    0.56316005   -0.59946385
 H                  2.62795468    1.35510405   -1.17023985
 O                  0.34031468    2.16724305   -1.12171385
 H                 -0.14256832    2.94877805   -0.79249585
 O                 -1.04650532    1.32555805    1.85599915
 H                 -1.86249932    0.96478505    2.24622615
 O                 -0.95921482   -3.34993355   -0.03347251
 H                  0.04494132   -4.00218851    0.04548263
 H                 -0.53648065   -2.46238090    0.65467437
 H                 -1.59676572   -3.79980185    0.52576570
 O                  1.21045209   -4.20367525   -0.16049919
 H                  1.67254817   -4.96168627    0.20485886
 H                  1.83693230   -3.20547573    0.06559871

