%NPROCS=4
# opt=maxcycle=1000 freq b3lyp/6-31g(d)

boat3_Beta_B3LYP_6-31G_d

0 1
 C                 -0.95662932    0.86157505    0.49843915
 C                  1.33683568    0.09905305   -0.44915685
 O                 -0.10574032   -1.42771295    1.08353915
 C                  1.51017818   -0.97975885    0.48642567
 C                 -1.10509332   -0.60102595    0.41639115
 C                  0.43873668    1.24845105   -0.01724985
 H                  2.08349318   -0.73825485    1.38819967
 H                  0.97132068    1.81404205    0.75952815
 H                  1.07513168   -0.25645895   -1.44856385
 H                 -1.99292632   -0.82185695    1.02734115
 H                 -1.74096932    1.38703605   -0.05683785
 C                 -1.48770232   -1.17371495   -0.96338485
 H                 -1.51271032   -2.26909395   -0.93613085
 H                 -0.79095832   -0.89728995   -1.75303085
 O                  2.03268383   -2.02577794   -0.03437363
 O                 -2.76983432   -0.69176495   -1.36184585
 H                 -3.42994032   -1.32875295   -1.03355685
 O                  2.69399968    0.56316005   -0.59946385
 H                  2.62795468    1.35510405   -1.17023985
 O                  0.34031468    2.16724305   -1.12171385
 H                 -0.14256832    2.94877805   -0.79249585
 O                 -1.04650532    1.32555805    1.85599915
 H                 -1.86249932    0.96478505    2.24622615
 O                  1.10067781   -3.44581021    1.48835716
 H                  1.84878921   -2.95767923    0.68544034
 H                  0.53141204   -2.39281481    1.40387534
 H                  1.43342588   -3.91578313    2.25647446
 O                 -2.41851396    2.52442381   -1.24284380
 H                 -1.46199570    2.53761763   -1.32345862
 H                 -2.75484630    3.42315981   -1.27030596

