%NPROCS=12
# opt=(TS,CalcFC,NoEigenTest,MaxCycle=500,cartesian) Freq B3LYP 6-31G(d)

boat3_Alpha_B3LYP_6-31G_d

0 1
 C                 -0.73272599    0.43809629    1.03363148
 C                  1.14132001    0.28769229   -0.75474552
 O                 -0.21100201   -1.86296728    0.16434744
 C                  1.27905003   -1.17191013   -0.52164449
 C                 -1.10308099   -0.75760271    0.25811348
 C                  0.55404201    1.03472329    0.44121848
 H                  1.32481901    1.09615229    1.22117248
 H                  0.58555501    0.51361429   -1.66622952
 H                 -1.84858299   -1.25799271    0.89515148
 H                 -1.53540699    1.18032929    1.07910748
 C                 -1.88555299   -0.54423271   -1.05415552
 H                 -2.28141299   -1.50260971   -1.41157852
 H                 -1.26889999   -0.16690971   -1.86839652
 O                 -2.97053999    0.35762129   -0.88296952
 H                 -3.65880799   -0.10124871   -0.36808452
 O                  2.48093501    0.76477629   -0.99710252
 H                  2.39479301    1.73914229   -1.05013852
 O                  0.34903701    2.40095929    0.03561048
 H                  0.02197101    2.88086729    0.82031148
 O                 -0.45509399    0.06209329    2.39546948
 H                  0.10429201   -0.74202571    2.36596148
 H                  1.50286803   -1.75000413   -1.42335649
 O                  2.20279001   -1.40712372    0.33262656
 O                  0.34791885   -3.16286569    1.75870450
 H                  0.06087793   -2.38327328    0.89276963
 H                 -0.32872591   -3.78599587    2.03340549
 O                  2.70861576   -2.94402453    1.92152205
 H                  2.82478575   -2.17194869    1.01685170
 H                  1.52613389   -3.18016783    1.98566254
 H                  3.42953351   -3.32884470    2.42529880

