%NPROCS=22
# opt=(TS,CalcFC,NoEigenTest,MaxCycle=500,cartesian) Freq B3LYP 6-31G(d)

boat3_Beta_B3LYP_6-31G_d

0 1
6           0        0.580153   -0.939890   -0.382066
6           0       -1.472169   -0.183803    1.002657
8           0        0.714908    1.180974    0.845984
6           0       -0.996802    1.191829    0.571264
6           0        1.423800   -0.036100    0.532926
6           0       -0.731180   -1.343945    0.292394
1           0       -1.171827    1.950811    1.346836
1           0       -0.468334   -2.071119    1.076002
1           0       -2.532644   -0.231349    0.717714
1           0        1.600086   -0.561861    1.481804
1           0        0.342511   -0.385904   -1.300868
6           0        2.771881    0.363122   -0.093984
1           0        3.302855    1.044512    0.585256
1           0        2.599834    0.893548   -1.034797
8           0       -1.198907    1.517337   -0.674861
8           0        3.584221   -0.765691   -0.429565
1           0        3.849723   -1.202350    0.396008
8           0       -1.291249   -0.245874    2.414794
1           0       -1.835894   -0.975831    2.746683
8           0       -1.598287   -1.961076   -0.656913
1           0       -1.049842   -2.597135   -1.147782
8           0        1.236665   -2.167956   -0.681701
1           0        2.134103   -1.944924   -0.994106
8           0        0.751512    2.874366   -0.847603
1           0       -0.304195    2.410517   -0.940281
1           0        0.939485    2.079269    0.080846
1           0        0.679109    3.786557   -0.521495
8           0       -3.635242    0.017573   -1.378031
1           0       -2.940679    0.700674   -1.380043
1           0       -3.107366   -0.799917   -1.387738

