%NPROCS=4
# opt=(calcfc,ts,noeigentest,maxcycle=1000,cartesian) b3lyp 6-31g(d) freq

boat3_Beta_B3LYP_6-31G_d

0 1
   6           0       -1.256968   -0.235295    0.859852
   6           0        0.464798   -1.768763   -0.212681
   8           0        0.156574    0.793714   -0.859453
   6           0        1.033916   -0.761624   -1.255073
   6           0       -1.170099    0.512400   -0.492208
   6           0       -0.030113   -1.138838    1.094849
   1           0        0.517432   -0.877646   -2.219955
   1           0       -0.358400   -1.954419    1.759833
   1           0        1.301784   -2.439831    0.023257
   1           0       -1.591363   -0.170386   -1.249610
   1           0       -1.304721    0.492991    1.688981
   6           0       -2.036559    1.774433   -0.484295
   1           0       -1.928095    2.316616   -1.432132
   1           0       -1.732367    2.444401    0.327869
   8           0        2.275954   -0.499786   -1.294428
   8           0       -3.412249    1.438309   -0.224185
   1           0       -3.807442    1.154361   -1.064165
   8           0       -0.576613   -2.535324   -0.811405
   1           0       -1.404526   -2.348202   -0.352859
   8           0        1.063523   -0.431964    1.662657
   1           0        0.778491   -0.046008    2.503095
   8           0       -2.420160   -1.073027    0.891713
   1           0       -3.161154   -0.488200    0.642352
   8           0        1.647494    2.208592    0.474116
   1           0        2.640007    1.521487    0.518658
   1           0        0.910079    1.557210   -0.077283
   1           0        1.814538    2.962607   -0.112098
   8           0        3.522807    0.673653    0.447698
   1           0        4.249033    1.005134   -0.106106
   1           0        2.988213   -0.017321   -0.206208

