# OPT FREQ B3LYP/gen gfinput

 FH.LOG

0  1
F           0.00000         0.00000         0.09254
H           0.00000         0.00000        -0.83286

F  0		
STO 1S	6	8.6603695
STO 2S	3	2.651991
STO 2P	3	3.414731566
STO 2S	1	1.296138702
STO 2P	1	1.501222387
****		
H  0		
STO 1S	3	1.173874877
STO 1S	1	0.718591289
****		

