# OPT FREQ B3LYP/gen gfinput

 H2.LOG

0  1
H           0.00000         0.00000         0.37140
H           0.00000         0.00000        -0.37140

H  0		
STO 1S	3	1.173874877
STO 1S	1	0.718591289
****		

