# OPT FREQ B3LYP/gen gfinput

 LiH.LOG

0  1
Li          0.00000         0.00000         0.40376
H           0.00000         0.00000        -1.21129

Li 0		
STO 1S	6	2.69562421
STO 2S	3	0.645885
STO 2S	1	0.60914838
****		
H  0		
STO 1S	3	1.173874877
STO 1S	1	0.718591289
****		

