# b3lyp/6-31g(d) irc=(calcfc,forward)

glo_1w_beta_ts_boat1_B3LYP_631Gd

0 1
  1  -0.026595     1.576676     1.424754
  6  -0.489540     1.097554     0.549958
  6   1.128162    -0.780590     0.053260
  6  -1.339197    -1.553946     0.037873
  6   0.089513    -1.809730    -0.418522
  8  -1.277335     0.013579     1.026265
  6   0.682166     0.628710    -0.347601
  1  -1.612465    -2.094418     0.952062
  1   0.078971    -1.776228    -1.518913
  1   0.370773     0.601971    -1.403053
  6  -1.341622     2.144495    -0.175710
  1  -2.136657     2.516049     0.488414
  1  -1.805488     1.682991    -1.059667
  8  -2.230571    -1.343928    -0.864517
  1   1.209714    -0.839527     1.149974
  8  -0.459634     3.208383    -0.549967
  1  -0.915396     3.793088    -1.172972
  8   0.453246    -3.097178     0.047377
  1   1.406763    -3.158083    -0.145110
  8   2.325821    -1.203709    -0.568608
  1   3.086806    -0.746917    -0.138237
  8   1.762413     1.557129    -0.211020
  1   1.392913     2.425223    -0.457870
  8  -3.631452    -0.102179     0.606869
  1  -3.166061    -0.820304    -0.237226
  1  -2.486439     0.153422     0.948825
  8   4.149341     0.479928     0.621242
  1   3.453905     1.115792     0.347336
  1   4.088680     0.456077     1.588235
  1  -4.050952     0.659053     0.176758
 
