%NPROCS=4
# opt=(MaxCycle=1000) freq B3LYP/6-31G(d)

 ./boats/6/glo_1w_beta_ts_boat6_B3LYP_631Gd.out

0  1
C           0.87589         0.77126        -0.55851
C          -1.42630        -0.38120        -0.55451
C          -0.57374         0.82070        -0.05439
C          -0.58655        -1.58598        -1.03249
H          -1.24313        -2.46954        -1.02150
H          -2.04252        -0.02248        -1.38721
H           0.90279         0.76896        -1.64859
H          -0.54096         0.74320         1.04421
C           0.48738        -1.86689         0.00408
H           1.28088        -2.55358        -0.32603
O           1.50441        -0.47029        -0.15901
C           1.70261         1.93107        -0.03397
H           1.23017         2.85567        -0.38677
H           1.66677         1.93892         1.07021
O           3.03156         1.77734        -0.50855
H           3.52431         2.57671        -0.27025
O           0.05115        -1.93070         1.20983
O          -0.00314        -1.40164        -2.31185
H          -0.72127        -1.37560        -2.96290
O          -2.32665        -0.82520         0.47016
H          -1.72616        -1.28460         1.10482
O          -1.11983         2.06149        -0.45209
H          -1.97099         2.15089         0.03909
O           2.05257        -0.86193         2.22314
H           1.24261        -1.45253         2.11767
H           1.80605        -0.17992         2.86595
H           1.89548        -0.42280         0.79247
O          -3.41531         1.65172         1.03869
H          -4.24190         1.72745         0.53883
H          -3.19232         0.69157         1.00890

