# opt freq uhf/gen gfprint

O_1.0_1.0_1.0_1.0_1.0_

0 3
O

O     0
STO 1S 6 1.0
STO 2S 3 1.0
STO 2P 3 1.0
STO 2S 1 1.0
STO 2P 1 1.0
****

