# opt freq hf/gen gfinput

# CF4

0 1
C                 -2.07410793    1.73714283   -0.02715156
F                 -1.62412338    0.46434516   -0.02715156
F                 -3.42410793    1.73715946   -0.02715156
F                 -1.62410014    2.37353307   -1.12942215
F                 -1.62410014    2.37353307    1.07511903

C       0
S       6       1.0     0.0
750.0779372     0.009163596
137.5259687     0.049361493
38.4748101      0.168538305
13.21713568     0.3705628
5.132600557     0.41649153
2.11388835      0.130334084
S       3       1.0     0.0
6.417013825     -0.059944749
0.389662879     0.59603854
0.149597322     0.458178629
S       1       1.0     0.0
0.224669525     1.0
P       3       1.0     0.0
3.884396915     0.162394855
0.996917974     0.566170886
0.338468037     0.422307175
P       1       1.0     0.0
0.166784071     1.0
****
 F   0
 S   6 1.00       0.000000000000
      0.1732773365D+04  0.9163596281D-02
      0.3177020997D+03  0.4936149294D-01
      0.8888159863D+02  0.1685383049D+00
      0.3053322799D+02  0.3705627997D+00
      0.1185694592D+02  0.4164915298D+00
      0.4883345113D+01  0.1303340841D+00
 S   3 1.00       0.000000000000
      0.1813416976D+02 -0.5994474934D-01
      0.1101168393D+01  0.5960385398D+00
      0.4227547735D+00  0.4581786291D+00
 S   1 1.00       0.000000000000
      0.1700379345D+00  0.1000000000D+01
 P   3 1.00       0.000000000000
      0.1071867040D+02  0.1623948553D+00
      0.2750912281D+01  0.5661708862D+00
      0.9339744122D+00  0.4223071752D+00
 P   1 1.00       0.000000000000
      0.3965709341D+00  0.1000000000D+01
 ****

