# b3lyp/6-31g(d) opt freq

glo_2w_alpha_ircr_boat1_B3LYP_631Gd

0 1
  1   1.430497    -0.966023    -1.300232
  6   1.297558    -0.842880    -0.216618
  6   0.230083     1.408751    -0.305254
  6  -1.022964    -0.163078     1.371583
  6  -0.885586     1.226733     0.728771
  8   0.000630    -1.276765     0.149026
  6   1.504714     0.659779     0.068467
  1  -0.625549     1.884752     1.579966
  1   1.737088     0.827564     1.134168
  6   2.316454    -1.713522     0.513222
  1   2.169111    -2.767133     0.238956
  1   2.166573    -1.618686     1.599160
  1  -0.137029     1.010033    -1.264756
  8   3.617442    -1.252172     0.128129
  1   4.281944    -1.697400     0.673860
  8  -2.134999     1.588605     0.181184
  1  -1.999176     2.436938    -0.271542
  8   0.454682     2.809117    -0.414144
  1   1.302485     2.903092    -0.883066
  8   2.550149     1.185020    -0.740929
  1   3.329939     0.626947    -0.566626
  1  -0.248008    -0.359761     2.130848
  8  -2.111257    -0.740071     1.466732
  8  -1.504043    -1.506707    -1.772380
  1  -1.550983    -2.426690    -2.071492
  1  -2.422551    -1.275294    -1.366769
  1  -0.607401    -1.405260    -0.680818
  8  -3.559292    -0.913904    -0.552183
  1  -4.055831    -1.705685    -0.295239
  1  -3.091416    -0.626559     0.293780
 
