%NPROCS=4
# opt=(calcfc,ts,noeigentest,maxcycle=1000,cartesian) freq b3lyp/6-31g(d)

boat6_Alpha_B3LYP_6-31G_d

0 1
    6           0       -0.080726    0.957357    0.339952
    6           0        2.203009    0.236835   -0.526705
    6           0        1.463871    1.125679    0.496645
    6           0        1.722964   -1.221112   -0.424880
    1           0        2.258882   -1.823071   -1.172101
    1           0        3.276020    0.274906   -0.295761
    1           0       -0.444609    0.441983    1.236619
    1           0        1.745252    2.167489    0.277622
    6           0        0.185127   -1.375062   -0.687424
    8           0       -0.387203    0.162294   -0.822679
    6           0       -0.766593    2.310460    0.223138
    1           0       -0.351012    2.981594    0.983404
    1           0       -0.566127    2.735540   -0.771643
    8           0       -2.189229    2.178616    0.438200
    1           0       -2.588894    3.059911    0.386773
    8           0        1.992299   -1.707644    0.885220
    1           0        1.124117   -2.117405    1.132122
    8           0        2.064524    0.743205   -1.845722
    1           0        1.102065    0.726555   -2.007320
    8           0        1.845348    0.859067    1.835929
    1           0        2.121387   -0.082565    1.836538
    8           0       -2.939526   -2.039483    0.543006
    1           0       -1.923524   -2.196100    0.389468
    1           0       -3.043865   -0.874403   -0.233198
    1           0       -3.005885   -1.826579    1.493110
    8           0       -0.415042   -2.037688    0.256683
    1           0       -0.038767   -1.649091   -1.734884
    8           0       -2.875378   -0.015346   -0.879300
    1           0       -2.990218    0.820325   -0.356099
    1           0       -1.807079    0.011796   -0.979701

