%NPROCS=4
# opt=(calcfc,ts,noeigentest,maxcycle=1000,cartesian) b3lyp 6-31g(d) freq

boat6_Alpha_B3LYP_6-31G_d

0 1
     6           0        1.145875   -0.702165   -0.227385
     6           0        0.465707    1.527441    0.803991
     6           0        1.391133    0.292429    0.926349
     6           0        0.182301    1.812348   -0.685909
     1           0       -0.385861    2.748169   -0.784373
     1           0        0.990560    2.379147    1.264663
     1           0        1.765110   -0.404212   -1.077585
     1           0        1.173223   -0.187343    1.893871
     6           0       -0.757085    0.696512   -1.196021
     1           0       -0.660193    0.544642   -2.280113
     8           0       -0.235762   -0.656481   -0.627485
     6           0        1.519128   -2.117924    0.178646
     1           0        2.530537   -2.065948    0.612094
     1           0        0.834048   -2.471194    0.966899
     8           0        1.477576   -2.955764   -0.963264
     1           0        1.740099   -3.845923   -0.685520
     8           0       -1.993938    0.920780   -0.743920
     8           0        1.362822    1.851452   -1.471420
     1           0        2.040913    2.359191   -0.990467
     8           0       -0.773349    1.330703    1.502136
     1           0       -1.472797    1.355853    0.775458
     8           0        2.770407    0.664652    0.859137
     1           0        3.036825    0.985721    1.734957
     8           0       -1.750854   -1.246047    1.285673
     1           0       -2.732774   -1.107776    0.777099
     1           0       -1.515626   -0.396131    1.740878
     1           0       -1.106872   -1.145041    0.446511
     8           0       -3.661003   -0.827636   -0.179767
     1           0       -3.042905   -0.093401   -0.629825
     1           0       -4.443827   -0.360875    0.148712

