%NPROCS=4
# opt=(calcfc,ts,noeigentest,maxcycle=1000,cartesian) freq b3lyp/6-31g(d)

boat6_Alpha_B3LYP_6-31G_d

0 1
  6           0       -0.446210    0.862706    0.142952
  6           0        1.475114   -0.787284    0.100028
  6           0        1.061257    0.711472   -0.038177
  6           0        0.329271   -1.786463    0.361373
  1           0        0.718548   -2.790643    0.120624
  1           0        2.129501   -0.860052    0.971356
  1           0       -0.743937    0.499472    1.132162
  1           0        1.275376    1.006292   -1.081224
  6           0       -0.964982   -1.600577   -0.470704
  8           0       -1.010412    0.016551   -0.885794
  6           0       -0.946541    2.283632   -0.021746
  1           0       -0.343101    2.936641    0.618857
  1           0       -0.829924    2.601311   -1.068356
  8           0       -2.329503    2.305642    0.369118
  1           0       -2.658472    3.210430    0.263427
  8           0       -0.009911   -1.690911    1.728174
  1           0       -0.968925   -1.924336    1.730956
  8           0        2.294485   -1.201178   -1.013219
  1           0        1.795753   -1.031898   -1.829062
  8           0        1.742839    1.554573    0.860927
  1           0        2.687554    1.511769    0.589583
  8           0       -3.396181   -0.089228   -0.710622
  1           0       -3.084948   -1.002434   -0.232144
  1           0       -2.264218    0.135525   -0.944660
  1           0       -3.562153    0.585520   -0.020739
  8           0        4.143503    0.826299   -0.373258
  1           0        4.842035    0.465960    0.194118
  1           0        3.700237    0.039452   -0.759263
  8           0       -2.042807   -1.910753    0.196778
  1           0       -0.876881   -1.971890   -1.504833

