%NPROCS=4
# opt=(MaxCycle=1000) freq B3LYP/6-31G(d)

 ./boats/2/glo_2w_beta_ts_boat2_B3LYP_631Gd_r.out

0  1
C           0.91655        -0.30855        -1.38265
O          -0.27051         0.75272        -0.77633
H           0.49069         3.12916         0.90400
H           2.99241         0.67056         1.07242
O           3.02827         1.36762         0.39269
H           2.22643         1.91770         0.61680
O           0.76162         2.19943         0.89043
H           0.28996         1.73003         0.10243
C          -1.10492        -0.83933         0.95119
C          -1.42990         0.12212        -0.23073
H          -1.35156        -0.36732         1.91071
H          -1.87312        -0.49896        -1.02665
O          -1.93324        -1.99260         0.87446
H          -1.62966        -2.46521         0.07798
C          -2.48433         1.15529         0.20069
O          -2.89727         2.03584        -0.82615
H          -2.06990         1.79304         0.98962
H          -3.32832         0.59491         0.63554
H          -3.27308         1.50336        -1.54459
H           2.51590         0.70853        -0.75412
C           0.96722        -1.49694        -0.39552
H           2.01840        -1.80025        -0.30656
C           0.39192        -1.22664         1.01239
H           0.42923        -2.17776         1.55916
O           0.19643        -2.55301        -1.00877
H           0.51835        -3.39900        -0.65987
O           1.19886        -0.31748         1.75073
H           0.81693         0.58238         1.71874
O           2.02446         0.37043        -1.60147
H           0.42989        -0.60070        -2.31552

