%NPROCS=4
# opt=(MaxCycle=1000) freq B3LYP/6-31G(d)

 ./boats/2/glo_2w_beta_ts_boat2_B3LYP_631Gd.out

0  1
C           1.00223        -0.36112        -1.44445
O          -0.32187         0.78197        -0.77363
H           0.62358         3.16939         0.94407
H           2.99770         0.66349         1.06605
O           3.04171         1.37845         0.40555
H           1.80700         2.04702         0.69256
O           0.79478         2.21656         0.91163
H           0.08983         1.47651        -0.14720
C          -1.10512        -0.83869         0.95382
C          -1.44948         0.13003        -0.21460
H          -1.35028        -0.37208         1.91650
H          -1.85404        -0.48714        -1.02840
O          -1.93364        -1.99114         0.87243
H          -1.61877        -2.46955         0.08320
C          -2.50013         1.15433         0.20689
O          -2.89646         2.03561        -0.82601
H          -2.08430         1.79184         0.99586
H          -3.35154         0.60560         0.64086
H          -3.27791         1.50659        -1.54405
H           2.78467         0.91321        -0.44986
C           0.97454        -1.50249        -0.39596
H           2.01963        -1.81932        -0.28514
C           0.39174        -1.22493         1.00887
H           0.42569        -2.17725         1.55437
O           0.19497        -2.55406        -1.00703
H           0.52128        -3.40279        -0.66988
O           1.19756        -0.32012         1.75235
H           0.81253         0.57732         1.73289
O           2.00743         0.34583        -1.62267
H           0.35252        -0.59771        -2.30254

