%NPROCS=4
# opt=(MaxCycle=1000) freq B3LYP/6-31G(d)

 ./boats/2/glo_1w_beta_ts_boat2_B3LYP_631Gd_r.out

0  1
C           1.71497        -0.67978        -1.09362
O           0.92787         1.06826        -0.83696
H           3.35522         1.93847         0.50790
O           2.85733        -0.55781        -0.62468
H           2.90783         0.44426         0.55844
O           2.66001         1.36585         0.86913
H           1.53580         1.38110        -0.07152
C          -0.66693         0.29951         0.83592
C          -0.43901         1.05020        -0.48865
C          -0.93665         2.49230        -0.44249
O          -2.34913         2.55052        -0.18559
O          -2.07062         0.08587         1.05572
H           1.54812        -0.59053        -2.18044
H          -2.50603         0.93817         0.84064
H          -0.27051         0.92278         1.65453
H          -0.95367         0.50187        -1.28331
H          -0.67966         3.00321        -1.37852
H          -0.46061         3.03475         0.38173
H          -2.80762         2.32131        -1.00995
O          -2.82543        -2.26563        -0.22777
H          -2.73321        -1.40753         0.24541
H          -3.01076        -2.91452         0.46714
C           0.06278        -1.06825         0.90739
H          -0.69112        -1.80333         1.22895
C           0.63106        -1.55983        -0.44046
H           1.15915        -2.50353        -0.22386
O           1.15502        -1.05379         1.81392
H           0.83697        -0.73557         2.67283
O          -0.38158        -1.74282        -1.41061
H          -1.17217        -2.16651        -1.00590

