%NPROCS=4
# opt=(MaxCycle=1000) freq B3LYP/6-31G(d)

 ./boats/2/glo_1w_alpha_ts_boat2_B3LYP_631Gd.out

0  1
C          -1.45029        -1.26142        -0.40358
O          -1.15797         0.25979        -0.82564
H          -3.99598         0.61522        -1.52396
O          -3.53993         0.68598        -0.67142
H          -2.56472         0.77469        -0.88120
C           1.06318         0.36151        -0.08628
C          -0.31274         1.01259         0.06303
H           1.39862         0.54336        -1.11113
H          -0.67012         0.93896         1.09655
O           2.05702         1.01050         0.74490
H           1.85614         0.78149         1.66914
C          -0.31577         2.49987        -0.34359
O           0.39970         3.30071         0.58190
H          -1.34629         2.87027        -0.34785
H           0.07962         2.59741        -1.36880
H           1.28380         2.90081         0.66099
H          -1.44186        -1.71921        -1.39772
O          -2.63418        -1.35016         0.26044
H          -3.25985        -0.63486        -0.10128
O           4.01163        -0.57633        -0.62707
H           4.42250        -0.06270        -1.33833
H           3.59915         0.08986        -0.04009
C           1.06175        -1.18329         0.11913
H           1.70993        -1.39512         0.98527
C          -0.31061        -1.75500         0.49754
H          -0.24715        -2.84926         0.39688
O          -0.57343        -1.38095         1.83966
H          -1.54894        -1.36115         1.90280
O           1.52553        -1.86150        -1.02913
H           2.47085        -1.60994        -1.11252

