# b3lyp/6-31g(d) irc=(calcfc,forward)

glo_2w_alpha_ts_boat5_B3LYP_631Gd

0 1
  8   0.224561    -0.700983    -1.168106
  6  -0.763796    -0.085751     1.048883
  6  -0.269228     1.805425    -0.606507
  6  -1.184724     1.290720     0.530575
  6   0.931139     0.943472    -0.993091
  6  -0.644598    -1.108950    -0.085546
  1  -1.122357     2.006361     1.357560
  1  -0.155541    -2.002616     0.335032
  1  -1.538380    -0.440618     1.738991
  1  -0.903098     1.923969    -1.494241
  6  -1.974392    -1.539047    -0.722319
  1  -1.794052    -2.376795    -1.408061
  1  -2.391970    -0.724122    -1.316096
  8  -2.944171    -1.904061     0.257221
  1  -2.696116    -2.778429     0.599227
  8   0.276640     3.089288    -0.320402
  1   1.169897     2.922455     0.034835
  8  -2.532809     1.284916     0.048751
  1  -3.087760     0.811598     0.694486
  8   0.441733     0.034276     1.798049
  1   0.699172    -0.851637     2.112796
  1   1.214192     1.129376    -2.043114
  8   2.002422     1.002238    -0.217583
  1   2.671274    -1.590703     0.148867
  8   2.094638    -2.155139    -0.753973
  1   1.838158    -3.036886    -0.458778
  1   1.110301    -1.503718    -1.044444
  8   3.142283    -0.764233     0.901222
  1   4.101917    -0.631927     0.819087
  1   2.675582     0.218056     0.530448
 
