# b3lyp/6-31g(d) irc=(calcfc,forward)

glo_2w_alpha_ts_boat5_B3LYP_631Gd

0 1
  8           0        0.351491   -0.652136   -0.755591
  6           0       -1.256456    0.187819    0.953980
  6           0       -0.110828    1.772338   -0.760351
  6           0       -1.412563    1.392105   -0.000043
  6           0        1.023602    0.748427   -0.574908
  6           0       -0.648803   -1.035402    0.239667
  1           0       -1.693552    2.261101    0.608282
  1           0       -0.149484   -1.636933    1.013916
  1           0       -2.251865   -0.120868    1.294844
  1           0       -0.380618    1.829879   -1.818885
  6           0       -1.667418   -1.897828   -0.521876
  1           0       -1.141449   -2.726939   -1.022709
  1           0       -2.141699   -1.284618   -1.288900
  8           0       -2.709132   -2.372333    0.318983
  1           0       -2.321389   -2.964424    0.982772
  8           0        0.396617    3.038516   -0.381252
  1           0        0.979848    2.852856    0.378913
  8           0       -2.401110    1.130375   -1.004539
  1           0       -3.250862    0.996034   -0.555028
  8           0       -0.540870    0.535950    2.122545
  1           0        0.379791    0.728271    1.823752
  1           0        1.684989    0.720322   -1.456630
  8           0        1.652413    0.868126    0.589108
  1           0        2.989848   -1.519552   -0.226914
  8           0        2.262088   -2.142109   -0.804350
  1           0        2.118022   -2.967187   -0.313874
  1           0        1.274228   -1.476611   -0.804923
  8           0        3.632366   -0.609886    0.507921
  1           0        4.349189   -0.186398    0.010393
  1           0        2.838891    0.118284    0.613570

