# b3lyp/6-31g(d) irc=(calcfc,reverse)

glo_2w_alpha_ts_boat5_B3LYP_631Gd

0 1
  8   0.323804    -0.645536    -1.059280
  6  -0.833139    -0.083849     1.066548
  6  -0.324729     1.800012    -0.651207
  6  -1.247496     1.274631     0.484305
  6   0.913072     0.939741    -0.990061
  6  -0.563875    -1.122925    -0.027344
  1  -1.208272     2.009978     1.297594
  1  -0.052867    -1.978227     0.451940
  1  -1.666155    -0.474284     1.673203
  1  -0.954339     1.883321    -1.542592
  6  -1.834425    -1.648453    -0.725831
  1  -1.550321    -2.439993    -1.436677
  1  -2.297939    -0.837641    -1.289166
  8  -2.816197    -2.111675     0.199461
  1  -2.516573    -2.960659     0.560209
  8   0.175406     3.094173    -0.362846
  1   1.028764     2.927110     0.083711
  8  -2.569209     1.207690    -0.060005
  1  -3.149681     0.792076     0.602710
  8   0.291711     0.149670     1.904813
  1   0.690509    -0.704692     2.156426
  1   1.157692     0.998653    -2.063120
  8   1.918916     1.091847    -0.195998
  1   2.753800    -1.524267     0.078707
  8   2.249981    -2.098867    -0.812413
  1   1.985641    -2.979663    -0.509855
  1   1.275093    -1.410424    -1.029307
  8   3.082815    -0.684605     0.963075
  1   4.029886    -0.491142     0.889758
  1   2.560502     0.213325     0.523543
 
