# b3lyp/6-31g(d) irc=(calcfc,reverse)

glo_1w_alpha_ts_boat5_B3LYP_631Gd

0 1
  8  -1.233358    -0.501112    -1.161133
  6  -0.474660     0.503600     1.005908
  6   1.321427    -0.536101    -0.571798
  6   0.973836     0.516218     0.529399
  6   0.189909    -1.491727    -0.911554
  6  -1.446644     0.546334    -0.179552
  1   1.606384     0.348972     1.409327
  1  -2.454138     0.357983     0.223892
  1  -0.626425     1.414817     1.595341
  1   1.693156     0.022631    -1.432812
  6  -1.483946     1.892660    -0.915898
  1  -2.314238     1.882734    -1.630712
  1  -0.561593     2.045174    -1.475310
  8  -1.610306     2.982739    -0.002458
  1  -2.530152     2.998572     0.308112
  8   2.380442    -1.426566    -0.222381
  1   1.970167    -2.127552     0.330754
  8   1.267325     1.798300    -0.043791
  1   0.928677     2.501711     0.534713
  8  -0.702059    -0.600328     1.888687
  1  -1.578829    -0.460890     2.312727
  1   0.303212    -1.904091    -1.928313
  8  -0.055780    -2.378616     0.022298
  1  -1.325816    -2.526562     0.228595
  8  -2.398121    -2.175758     0.088947
  1  -2.532360    -1.646862     0.899837
  1  -2.044958    -1.340042    -0.715189
  8   3.479354     0.846750     0.040478
  1   2.930775     1.494504     0.540076
  1   3.036632    -0.010256     0.174752
 
