%NPROCS=4
# opt=(calcfc,ts,noeigentest,maxcycle=1000,cartesian) b3lyp 6-31g(d) freq

boat4_Alpha_B3LYP_6-31G_d

0 1
 8           0       -1.258596    0.432044   -0.707726
 6           0        1.046619    0.326752   -0.141869
 6           0       -0.396851   -1.751822    0.438998
 6           0        1.004343   -1.192100    0.166783
 6           0       -1.519015   -1.277710   -0.483657
 6           0       -0.275034    1.060519    0.122387
 1           0        1.563557   -1.333400    1.103819
 1           0       -0.545979    0.976013    1.185770
 1           0        1.243893    0.422036   -1.219995
 6           0       -0.212645    2.532088   -0.312355
 1           0        0.101650    2.581812   -1.365064
 1           0       -1.198427    3.006192   -0.231643
 1           0       -0.327139   -2.842651    0.280315
 8           0        0.768622    3.280090    0.420427
 1           0        0.450393    3.387377    1.332655
 8           0       -0.759930   -1.451456    1.776360
 1           0       -1.738235   -1.516462    1.761129
 8           0        1.560458   -1.948058   -0.890000
 1           0        2.502514   -1.666886   -0.958966
 8           0        2.121926    0.898998    0.616440
 1           0        2.044080    1.871973    0.534125
 1           0       -1.381260   -1.515356   -1.542861
 8           0       -2.706424   -1.422290    0.043374
 8           0       -3.625884    0.692561   -0.578436
 1           0       -3.439103   -0.412733   -0.322982
 1           0       -2.417542    0.802525   -0.622658
 1           0       -3.980191    1.103496    0.226447
 8           0        4.046192   -0.715429   -0.551797
 1           0        4.499332   -1.195012    0.162431
 1           0        3.567057    0.013051   -0.093388

