%NPROCS=4
# opt=(calcfc,ts,noeigentest,maxcycle=1000,cartesian) freq b3lyp/6-31g(d)
geom=connectivity

boat4_Alpha_B3LYP_6-31G_d

0 1
 O                  0.21542544   -1.69277893    0.27644950
 C                 -0.71644002    0.69135885   -0.26464342
 C                  1.82778498    0.38159985   -0.02518242
 C                  0.61899398    1.31202785    0.16406758
 C                  1.47430152   -0.82163738   -0.63170434
 C                 -0.88470002   -0.68721915    0.38724158
 H                  0.55391998    1.64608885    1.20739158
 H                 -0.98857702   -0.56656415    1.47264158
 H                 -0.74671302    0.61206185   -1.35860242
 C                 -2.11490902   -1.43277415   -0.13608142
 H                 -2.01623702   -1.61736515   -1.21131342
 H                 -2.21606502   -2.41303115    0.34274658
 H                  2.59089698    0.83329185   -0.66878642
 O                 -3.30207802   -0.67475915    0.07936258
 H                 -3.63316402   -0.91142615    0.96662358
 O                  2.46070998    0.18097085    1.25712658
 H                  3.00577498   -0.62434115    1.14002858
 O                  0.80688098    2.51023085   -0.61290542
 H                 -0.00078202    3.04018685   -0.45714242
 O                 -1.77262702    1.59137185    0.09697858
 H                 -2.61425002    1.11315485   -0.06967842
 H                  1.13137152   -0.74024138   -1.66997234
 O                  2.47418556   -1.62073307   -0.64053450
 O                  2.37426428   -3.93440515   -0.12915974
 H                  2.58727110   -2.80262937   -0.46637137
 H                  1.22724166   -4.12094621    0.17007517
 H                  2.82772916   -3.89577060    0.71610765
 O                  0.20211255   -3.83746757    0.76785764
 H                 -0.19845569   -2.70629778    0.76785764
 H                 -0.45804422   -4.32502724    1.26593253

 1 6 1.0
 2 4 1.0 6 1.0 9 1.0 20 1.0
 3 4 1.0 5 1.5 13 1.0 16 1.0
 4 7 1.0 18 1.0
 5 22 1.0 23 2.0
 6 8 1.0 10 1.0
 7
 8
 9
 10 11 1.0 12 1.0 14 1.0
 11
 12
 13
 14 15 1.0
 15
 16 17 1.0
 17
 18 19 1.0
 19
 20 21 1.0
 21
 22
 23
 24 27 1.0
 25
 26
 27
 28 30 1.0
 29
 30

