# hf/gen opt freq

Title Card Required

0 1
 C                 -1.04571427    1.69142854    0.00000000
 O                  0.21268573    1.69142854    0.00000000
 O                 -2.30411427    1.69142854    0.00000000

C 0
STO 1S 6 5.685038
STO 2S 3 1.642076
STO 2P 3 2.055640
STO 2S 1 0.946446
STO 2P 1 0.980425
****
O 0
STO 1S 6 7.668943
STO 2S 3 2.318057
STO 2P 3 2.961287
STO 2S 1 1.182671
STO 2P 1 1.327073
****

