# opt hf/gen

F2

0 1
F
F 1 1.41

F 0
STO 1S 6 8.660369
STO 2S 3 2.650368
STO 2P 3 3.414731
STO 2S 1 1.296135
STO 2P 1 1.501223
****


