# b3lyp/6-31g(d) irc=(calcfc,reverse)

glo_2w_beta_ts_boat2_B3LYP_631Gd

0 1
  6   0.968701    -0.332996    -1.424034
  8  -0.283721     0.771027    -0.775974
  1   0.560566     3.124929     0.897329
  1   2.991506     0.657691     1.048304
  8   3.011728     1.366006     0.373586
  1   2.046789     1.925751     0.621828
  8   0.790074     2.184265     0.874750
  1   0.179055     1.530049    -0.063723
  6  -1.100723    -0.844483     0.939378
  6  -1.433382     0.122391    -0.234744
  1  -1.347278    -0.374155     1.899474
  1  -1.846029    -0.492885    -1.047613
  8  -1.929328    -1.997350     0.860257
  1  -1.620709    -2.473242     0.067326
  6  -2.486733     1.149388     0.190161
  8  -2.893017     2.029865    -0.839343
  1  -2.069450     1.786433     0.977931
  1  -3.333762     0.593718     0.624713
  1  -3.272816     1.499241    -1.557092
  1   2.660383     0.841888    -0.557079
  6   0.972904    -1.503990    -0.408298
  1   2.021870    -1.812842    -0.312025
  6   0.396200    -1.231494     0.998399
  1   0.432102    -2.182296     1.546107
  8   0.199724    -2.558568    -1.021384
  1   0.523989    -3.405378    -0.676955
  8   1.202706    -0.321422     1.737422
  1   0.822219     0.583292     1.704795
  8   2.022246     0.356000    -1.611905
  1   0.386457    -0.593692    -2.317766
 
