# b3lyp/6-31g(d) irc=(calcfc,forward)

glo_1w_beta_ts_boat2_B3LYP_631Gd

0 1
  6   1.691274    -0.631916    -1.085319
  8   0.963166     1.029796    -0.833736
  1   3.340338     1.941325     0.494604
  8   2.879066    -0.543711    -0.608673
  1   2.906852     0.300911     0.349027
  8   2.658154     1.335755     0.832550
  1   1.748137     1.385212     0.078479
  6  -0.651213     0.289137     0.828386
  6  -0.414237     1.031384    -0.500601
  6  -0.914224     2.479928    -0.449401
  8  -2.330321     2.539617    -0.191786
  8  -2.055001     0.075794     1.050963
  1   1.586961    -0.626091    -2.178604
  1  -2.489146     0.927349     0.830696
  1  -0.253639     0.914094     1.645212
  1  -0.954698     0.493594    -1.288013
  1  -0.660641     2.994640    -1.384170
  1  -0.441159     3.022050     0.376257
  1  -2.788049     2.307401    -1.015868
  8  -2.809196    -2.274982    -0.233515
  1  -2.716154    -1.416010     0.238927
  1  -2.994281    -2.922920     0.462308
  6   0.076946    -1.078933     0.902455
  1  -0.675185    -1.815377     1.224378
  6   0.646113    -1.563566    -0.446900
  1   1.193926    -2.497933    -0.240629
  8   1.171196    -1.064018     1.807880
  1   0.854030    -0.742327     2.665746
  8  -0.365521    -1.754302    -1.416252
  1  -1.157588    -2.173720    -1.009516
 
