%NPROCS=4
# opt=(calcfc,ts,noeigentest,maxcycle=1000,cartesian) b3lyp 6-31g(d) freq

boat6_Alpha_B3LYP_6-31G_d

0 1
 C                 -0.46058600   -0.02329700    1.05039000
 C                  1.29060800    0.77391200   -0.58771000
 C                  0.21908400    1.19207300    0.43193000
 C                  1.31214600   -0.75863200   -0.85138000
 H                  1.88389561   -0.93004261   -1.73942323
 H                  2.26084252    1.14587373   -0.33238776
 H                  0.15199189   -0.54357641    1.75675935
 H                 -0.45897578    1.88352436   -0.02307545
 C                  0.10856118   -1.37786832   -1.13074778
 H                  0.33296101   -2.42397556   -1.11645255
 O                 -1.13228718   -0.89362868    0.05001778
 C                 -1.63795716    0.48893984    1.90069029
 H                 -1.26914996    1.14170544    2.66408948
 H                 -2.32361167    1.02230827    1.27595353
 O                 -2.30777981   -0.62061900    2.50493924
 H                 -2.90347743   -0.30244679    3.18722274
 O                 -0.36085461   -1.05782490   -2.27775302
 O                  1.96951000   -1.47296998    0.19861706
 H                  2.81951366   -1.79151914   -0.11382525
 O                  0.95743621    1.38439428   -1.83719307
 H                  0.60689529    0.72009308   -2.43504337
 O                  0.85810374    1.91930278    1.48439882
 H                  0.70066398    2.85889444    1.36616076
 O                 -2.17287467    0.51855256   -1.49105453
 H                 -1.90941829    0.63264343   -2.65822307
 H                 -2.00218412    1.42681812   -1.23121151
 H                 -1.86202160   -0.17513288   -0.57548319
 O                 -1.34156852    0.56360445   -3.71310706
 H                 -0.81893658   -0.34299567   -3.12579788
 H                 -0.71239516    1.28062352   -3.82092424

