# OPT FREQ B3LYP/gen gfinput

 BeH2.LOG

0  1
Be          0.00000         0.00000         0.00000
H           0.00000         0.00000         1.32901
H           0.00000         0.00000        -1.32901

Be 0		
STO 1S	6	3.69839368
STO 2S	3	0.942342
STO 2S	1	0.890532
****		
H  0		
STO 1S	3	1.173874877
STO 1S	1	0.718591289
****		

