# OPT FREQ B3LYP/gen gfinput

 CF4.LOG

0  1
C           0.00000         0.00000         0.00000
F           0.63045         0.63045         0.63045
F          -0.63045         0.63045        -0.63045
F           0.63045        -0.63045        -0.63045
F          -0.63045        -0.63045         0.63045

C 0		
STO 1S	6	5.685038
STO 2S	3	1.642887
STO 2P	3	2.05564
STO 2S	1	0.946446
STO 2P	1	0.980425
****		
F  0
STO 1S  6       8.6603695
STO 2S  3       2.651991
STO 2P  3       3.414731566
STO 2S  1       1.296138702
STO 2P  1       1.501222387
****

