# OPT FREQ B3LYP/gen gfinput

 CH4.LOG

0  1
C           0.00000         0.00000         0.00000
H           0.63045         0.63045         0.63045
H          -0.63045         0.63045        -0.63045
H           0.63045        -0.63045        -0.63045
H          -0.63045        -0.63045         0.63045

C 0		
STO 1S	6	5.685038
STO 2S	3	1.642887
STO 2P	3	2.05564
STO 2S	1	0.946446
STO 2P	1	0.980425
****		
H  0		
STO 1S	3	1.173874877
STO 1S	1	0.718591289
****		

