# b3lyp/6-31g(d) irc=(calcfc,reverse)

glo_1w_alpha_ts_boat3_B3LYP_631Gd

0 1
  6  -0.464671    -0.180519     0.949656
  6   0.703930     1.473583    -0.665309
  8   1.079416    -0.992912    -0.825854
  6   1.859832     0.491887    -0.547237
  6  -0.171769    -1.245647    -0.121638
  6  -0.409556     1.263277     0.383546
  1  -0.198703     1.916107     1.242948
  1   0.245013     1.288883    -1.647587
  1  -0.047719    -2.203786     0.402501
  1  -1.478745    -0.361194     1.319694
  6  -1.260936    -1.386009    -1.195531
  1  -0.931305    -2.109007    -1.953042
  1  -1.444920    -0.426453    -1.679714
  8  -2.525689    -1.779452    -0.644001
  1  -2.415899    -2.627143    -0.184435
  8   1.259703     2.779263    -0.622814
  1   0.520113     3.391253    -0.768388
  8  -1.604442     1.655597    -0.283127
  1  -2.387988     1.375524     0.242824
  8   0.379506    -0.338511     2.072861
  1   1.266093    -0.008289     1.804636
  1   2.458413     0.454740    -1.470189
  8   2.524794     0.409886     0.575451
  8   3.006673    -1.915517     0.244668
  1   3.045191    -0.808648     0.522005
  1   1.986854    -1.664848    -0.386000
  1   3.742219    -2.115660    -0.357541
  8  -3.841245     0.332940     0.694572
  1  -4.606707     0.646767     0.189637
  1  -3.522609    -0.458025     0.207683
 
