%NPROCS=20
# b3lyp/6-31g(d) opt freq

Title Card Required

0 1
 O                 -1.29066400   -0.27109500   -1.15955700
 C                 -0.64086100    0.73847500    1.01529200
 C                  1.05678600   -0.61534100   -0.39677300
 C                  0.61732900   -0.16598800    1.00377500
 C                 -0.14514200   -1.19782900   -1.15861200
 C                 -1.26296400    0.93953700   -0.37200800
 H                  0.35713000   -1.07398200    1.56123500
 H                 -2.32335900    1.19706700   -0.23329900
 H                 -0.35308400    1.72320100    1.39964900
 H                  1.50293400    0.22330300   -0.93517200
 C                 -0.62794200    2.09783400   -1.17124100
 H                 -1.02872000    2.06320000   -2.19307400
 H                  0.45720600    1.99087500   -1.23629100
 O                 -0.85487600    3.35409700   -0.54392200
 H                 -1.75643000    3.64070400   -0.75641800
 O                  2.08975600   -1.58470200   -0.30345600
 H                  1.63923500   -2.43131400   -0.12270400
 O                  1.72447600    0.49440700    1.61400100
 H                  1.66420900    0.37752600    2.57358100
 O                 -1.57771200    0.11904900    1.92916300
 H                 -2.24456700    0.78109800    2.17294000
 H                  0.09769300   -1.33003600   -2.21875600
 O                 -0.43236500   -2.45520000   -0.61174300
 H                 -1.33990500   -2.44150800   -0.18415300
 O                 -2.72818000   -1.86218900    0.24070300
 H                 -2.49657200   -1.35483300    1.04462100
 H                 -2.61422900   -1.19678400   -0.46665500
 O                  3.90048200    0.68581600   -0.37726000
 H                  3.40109200    0.82542500    0.44541100
 H                  3.79103300   -0.27125500   -0.50306000

