# b3lyp/6-31g(d) opt freq

glo_1w_alpha_ircr_boat5_B3LYP_631Gd

0 1
  8  -1.224036    -0.488762    -1.150025
  6  -0.496912     0.524638     1.011481
  6   1.295797    -0.529537    -0.567397
  6   0.951628     0.525331     0.537726
  6   0.144901    -1.456197    -0.917853
  6  -1.465212     0.556007    -0.178260
  1   1.576310     0.331114     1.418259
  1  -2.477169     0.393731     0.237018
  1  -0.654189     1.453151     1.576037
  1   1.633014     0.028850    -1.439860
  6  -1.502545     1.906714    -0.911961
  1  -2.330969     1.891235    -1.632218
  1  -0.574702     2.060714    -1.458833
  8  -1.626116     2.997604     0.002842
  1  -2.543515     3.027896     0.315283
  8   2.360963    -1.416175    -0.212423
  1   1.954619    -2.103472     0.348930
  8   1.237705     1.816803    -0.030732
  1   0.839740     2.505566     0.529213
  8  -0.722024    -0.583711     1.894566
  1  -1.537368    -0.391807     2.384900
  1   0.203678    -1.840554    -1.942277
  8  -0.069461    -2.371699     0.029966
  1  -1.091097    -2.522258     0.158677
  8  -2.433064    -2.167756     0.091539
  1  -2.555849    -1.678399     0.915944
  1  -2.164834    -1.467322    -0.591424
  8   3.504906     0.867861     0.044118
  1   2.946340     1.511648     0.484784
  1   3.216127    -0.022220     0.284483
 
