# b3lyp/6-31g(d) opt freq

glo_2w_beta_ircf_boat5_B3LYP_631Gd

0 1
  8   0.392617     0.703616    -0.646450
  6  -1.416304    -0.180517     0.735235
  6   0.200309    -1.780102    -0.372906
  6  -0.419025    -1.345867     0.960441
  6   0.966881    -0.614498    -1.074477
  6  -1.029396     0.685762    -0.486705
  1  -0.995726    -2.191892     1.356625
  1  -1.477643     0.229499    -1.379965
  1  -1.421241     0.438565     1.640997
  1   0.913628    -2.597336    -0.215022
  6  -1.596602     2.107506    -0.375023
  1  -1.248972     2.710455    -1.219909
  1  -1.226564     2.582150     0.549820
  1   0.759267    -0.643922    -2.163447
  8   2.285045    -0.708327    -0.778265
  8  -3.015919     2.086685    -0.422690
  1  -3.318093     1.294230     0.057449
  8  -0.936115    -2.224979    -1.131788
  1  -0.657801    -2.360557    -2.051156
  8   0.636157    -1.015878     1.868861
  1   0.248941    -0.943747     2.755206
  8  -2.757870    -0.653563     0.594178
  1  -2.745777    -1.254360    -0.173481
  8   3.758166     1.222889    -0.379569
  1   3.181389     1.385870     0.430934
  1   4.569836     0.807814    -0.051562
  1   2.842862     0.135827    -0.869210
  8   1.949952     1.347915     1.300386
  1   1.282622     1.357604     0.578180
  1   1.826684     0.437302     1.629011
 
