# b3lyp/6-31g(d) opt freq

glo_2w_beta_ircf_boat3_B3LYP_631Gd

0 1
  6   1.195178     0.194962     0.872087
  6  -0.490824     1.756065    -0.213708
  8  -0.144230    -0.742362    -0.953835
  6  -1.027574     0.731302    -1.245504
  6   1.172182    -0.476607    -0.521532
  6  -0.027118     1.108830     1.096681
  1  -0.638615     0.947270    -2.243578
  1   0.298968     1.912589     1.775343
  1  -1.328258     2.431506     0.003131
  1   1.627406     0.242375    -1.221927
  1   1.187095    -0.578039     1.658961
  6   2.050849    -1.736510    -0.543446
  1   1.996450    -2.221434    -1.526136
  1   1.715602    -2.454735     0.211494
  8  -2.312737     0.456838    -1.264700
  8   3.410949    -1.403443    -0.200646
  1   3.836487    -1.060520    -1.002410
  8   0.565363     2.518391    -0.790017
  1   1.389215     2.321044    -0.307773
  8  -1.141188     0.414000     1.626522
  1  -0.878750    -0.024176     2.450388
  8   2.363906     1.011236     1.002376
  1   3.108915     0.420723     0.777927
  8  -1.470200    -2.286433     0.478761
  1  -2.708192    -1.503352     0.582674
  1  -0.904613    -1.664583    -0.084266
  1  -1.610923    -3.070246    -0.073535
  8  -3.440643    -0.809775     0.483648
  1  -4.133528    -1.217116    -0.058327
  1  -2.745527     0.087969    -0.394807
 
