%NPROCS=4
# b3lyp/6-31g(d) irc=(calcfc,reverse,maxpoints=20)

 ./4/glo_2w_alpha_boat4_b3lyp_631Gd_iopt.out

0  1
O          -0.59258         0.62234         0.00698
C           1.76913        -0.10300        -0.14013
C          -0.12752        -1.75688        -0.40475
C           1.24457        -1.48869         0.23387
C          -0.76658        -0.45728        -0.94084
C           0.77183         0.99073         0.28013
H           1.10764        -1.51646         1.32594
H           0.85255         1.09770         1.37030
H           1.92191        -0.07302        -1.23136
C           1.07001         2.33904        -0.38745
H           0.99674         2.24055        -1.47520
H           0.33667         3.09061        -0.06891
H           0.01728        -2.44364        -1.25225
O           2.41312         2.76778        -0.11949
H           2.43450         3.12967         0.78069
O          -0.98119        -2.32875         0.57530
H          -1.86868        -2.28038         0.17582
O           2.16058        -2.48567        -0.18671
H           3.02904        -2.20026         0.14546
O           3.01568         0.06854         0.52098
H           3.33588         0.94981         0.25273
H          -0.29753        -0.14977        -1.88948
O          -2.11865        -0.69549        -1.09040
H          -2.64347         0.15220        -1.09666
O          -3.73164         1.37110        -0.53915
H          -3.53769         1.15611         0.40892
H          -4.64947         1.09177        -0.67695
O          -2.68576         0.49554         1.84397
H          -1.83184         0.55137         1.36195
H          -2.80862        -0.46290         1.93218

