%NPROCS=4
# opt=(calcfc,ts,noeigentest,maxcycle=1000,cartesian) b3lyp 6-31g(d) freq

boat5_Beta_B3LYP_6-31G_d

0 1
8           0       -0.374373   -0.724354   -0.617358
6           0        1.451761    0.185356    0.724505
6           0       -0.203516    1.801063   -0.316520
6           0        0.436642    1.322664    0.988698
6           0       -1.008897    0.699780   -1.076857
6           0        1.038583   -0.687515   -0.486143
1           0        0.990434    2.159768    1.432319
1           0        1.456697   -0.223579   -1.391322
1           0        1.505265   -0.436823    1.629408
1           0       -0.915329    2.606395   -0.097575
6           0        1.612624   -2.102494   -0.383409
1           0        1.223494   -2.713802   -1.204054
1           0        1.280132   -2.565768    0.564691
1           0       -0.674985    0.676475   -2.140060
8           0       -2.273582    0.725180   -0.827514
8           0        3.028960   -2.091929   -0.488761
1           0        3.350850   -1.303707   -0.013367
8           0        0.905979    2.283495   -1.090915
1           0        0.549056    2.701017   -1.892995
8           0       -0.614095    0.930191    1.895422
1           0       -0.214014    0.837204    2.775074
8           0        2.776512    0.693856    0.546318
1           0        2.725433    1.300132   -0.216262
8           0       -3.753701   -1.205084   -0.388053
1           0       -2.834882   -1.361780    0.629079
1           0       -4.549599   -0.758383   -0.057222
1           0       -3.181718   -0.429898   -0.814364
8           0       -1.907789   -1.370858    1.224853
1           0       -1.182635   -1.257085    0.448651
1           0       -1.794675   -0.467261    1.614412

