%NPROCS=4
# opt=(calcfc,ts,noeigentest,maxcycle=1000,cartesian) b3lyp 6-31g(d) freq

boat5_Alpha_B3LYP_6-31G_d

0 1
  8           0       -1.389468   -0.294653   -1.125058
  6           0       -0.674758    0.718693    1.007724
  6           0        1.085519   -0.610801   -0.400926
  6           0        0.650301   -0.090445    0.981725
  6           0       -0.051413   -1.364658   -1.108670
  6           0       -1.336357    0.916940   -0.363231
  1           0        0.489593   -0.971413    1.605937
  1           0       -2.385852    1.204864   -0.181769
  1           0       -0.461035    1.711631    1.421994
  1           0        1.497448    0.204240   -1.003389
  6           0       -0.719241    2.066951   -1.179357
  1           0       -1.136830    2.029439   -2.194366
  1           0        0.367176    1.972129   -1.259036
  8           0       -0.959905    3.318125   -0.540128
  1           0       -1.855996    3.602895   -0.765866
  8           0        2.141812   -1.550694   -0.248300
  1           0        1.693009   -2.395529   -0.042319
  8           0        1.729502    0.699367    1.493545
  1           0        1.718668    0.649351    2.461700
  8           0       -1.576993    0.012891    1.907834
  1           0       -2.253045    0.647883    2.201880
  1           0        0.060417   -1.404396   -2.201718
  8           0       -0.376777   -2.468238   -0.502663
  1           0       -1.738225   -2.430103   -0.031052
  8           0       -2.646485   -1.896528    0.152150
  1           0       -2.485004   -1.471606    1.023557
  1           0       -2.246844   -1.061259   -0.549148
  8           0        4.034141    0.608679   -0.388674
  1           0        3.462441    0.810361    0.372951
  1           0        3.903151   -0.350169   -0.472590

