%NPROCS=4
# opt=(calcfc,ts,noeigentest,maxcycle=1000,cartesian) b3lyp 6-31g(d) freq

boat5_Beta_B3LYP_6-31G_d

0 1
   8           0        0.525676   -0.460807   -0.196530
   6           0       -1.863051   -0.009152    0.065565
   6           0       -0.220776    1.924542   -0.221292
   6           0       -1.408237    1.157136   -0.837088
   6           0        0.929224    1.054917    0.336218
   6           0       -0.677162   -0.971372    0.377880
   1           0       -2.249280    1.867463   -0.890060
   1           0       -0.578512   -1.008149    1.479407
   1           0       -2.649356   -0.576003   -0.450560
   1           0        0.222687    2.564818   -0.985672
   6           0       -0.908344   -2.396219   -0.146195
   1           0       -0.020025   -3.019937    0.048459
   1           0       -1.062966   -2.358936   -1.228918
   1           0        0.789630    0.891543    1.421622
   8           0        2.106329    1.357107   -0.088683
   8           0       -2.079288   -2.966608    0.408289
   1           0       -1.956216   -3.044113    1.365524
   8           0       -0.697579    2.699924    0.899322
   1           0       -1.104438    3.504096    0.567337
   8           0       -1.035381    0.738277   -2.144136
   1           0       -1.838224    0.434041   -2.594985
   8           0       -2.458944    0.476309    1.263722
   1           0       -2.050072    1.333403    1.465308
   8           0        3.910764   -0.143316    0.611078
   1           0        3.265925   -1.169309    0.079962
   1           0        4.673127    0.117918    0.063554
   1           0        3.138948    0.622545    0.400749
   8           0        2.493775   -1.881414   -0.333977
   1           0        1.493020   -1.212764   -0.278400
   1           0        2.693012   -2.061492   -1.266535

# b3lyp/6-31g(d) irc=(calcfc,forward)

glo_2w_beta_ts_boat5_B3LYP_631Gd

0 1
