%NPROCS=4
# opt=maxcycle=1000 freq b3lyp/6-31g(d) geom=connectivity

boat5_Alpha_B3LYP_6-31G_d

0 1
 O                 -0.13417922   -1.41676007   -1.07457997
 C                 -0.46058600   -0.02329700    1.05039000
 C                  1.29060800    0.77391200   -0.58771000
 C                  0.21908400    1.19207300    0.43193000
 C                  1.47022422   -0.68670093   -0.82698503
 C                 -1.04762500   -0.92666800   -0.03054500
 H                  0.70934900    1.75001400    1.23939900
 H                 -1.35822100   -1.87146800    0.43141900
 H                 -1.29890500    0.34142900    1.65582600
 H                  1.03472300    1.24277900   -1.54734700
 C                 -2.22373800   -0.35729300   -0.82749700
 H                 -2.66652000   -1.13766200   -1.45744700
 H                 -1.89769600    0.42542200   -1.51882400
 O                 -3.23207000    0.17279900    0.02418700
 H                 -3.71199300   -0.58253400    0.40954600
 O                  2.58905100    1.27170000   -0.24601800
 H                  3.06476791    0.54042567    0.18719836
 O                 -0.68710000    2.11615400   -0.17615600
 H                 -1.46800200    2.20543200    0.40313100
 O                  0.35592800   -0.71678500    1.99192000
 H                 -0.15596963   -1.48058803    2.33916672
 H                  2.05612122   -0.86235293   -1.73700203
 O                  2.12569622   -1.39898293    0.21998997
 H                  1.65089933   -2.41474456    0.64753672
 O                  0.70765890   -3.10253975    0.36962438
 H                  0.14326702   -3.06526928    1.14530004
 H                  0.06790762   -2.58549866   -0.50409572
 O                  1.04780982    3.07483937   -0.61712437
 H                  0.43817191    3.18609374    0.11606324
 H                  1.56623169    2.27778014   -0.48470323

 1 6 1.0
 2 4 1.0 6 1.0 9 1.0 20 1.0
 3 4 1.0 5 1.0 10 1.0 16 1.0
 4 7 1.0 18 1.0
 5 22 1.0 23 1.0
 6 8 1.0 11 1.0
 7
 8
 9
 10
 11 12 1.0 13 1.0 14 1.0
 12
 13
 14 15 1.0
 15
 16 17 1.0
 17
 18 19 1.0
 19
 20 21 1.0
 21
 22
 23
 24
 25 26 1.0
 26
 27
 28 29 1.0 30 1.0
 29
 30

