%NPROCS=18
# opt=(modredundant,MaxCycle=1000) freq B3LYP/6-31G(d)

boat5_Beta_B3LYP_6-31G_d

0 1
 O                  0.04501456    1.56030268    0.19338550
 C                  0.86816056   -0.67546232    1.04036450
 C                 -1.18179844   -0.54027032   -0.43118450
 C                  0.04634656   -1.37530232   -0.03497550
 C                 -1.19558844    0.85762668    0.21733750
 C                  1.27315856    0.72527068    0.58959450
 H                 -0.28219144   -2.35390532    0.33459450
 H                  1.72137956    1.26818568    1.42870550
 H                  1.76518856   -1.26814432    1.25553850
 H                 -1.16391244   -0.42309232   -1.52154550
 C                  2.22512756    0.76456068   -0.59686450
 H                  2.52286056    1.79834468   -0.80394850
 H                  1.74754356    0.39747368   -1.51072450
 H                 -1.54605344    0.78803168    1.25338450
 O                 -2.13488444    1.64978168   -0.47425550
 H                 -1.65450980    2.43851594   -0.72890283
 O                  3.38749756    0.00644868   -0.34719050
 H                  3.79652056    0.42259368    0.41258750
 O                 -2.36011044   -1.24077032   -0.10108250
 H                 -2.31249444   -2.05601432   -0.60195450
 O                  0.83488056   -1.63708132   -1.17430050
 H                  1.57282756   -2.15564232   -0.85122350
 O                  0.13774456   -0.61997032    2.24519650
 H                 -0.64025844   -0.10008532    2.03971350
 O                 -0.87576467    3.68057150   -1.72783142
 H                 -0.27996550    2.96183483   -1.95152978
 H                 -1.06469122    4.19691428   -2.51478560
 O                  0.73871172    1.44241818   -2.39545679
 H                  1.09960609    2.11451950   -2.97823897
 H                  0.71764384    1.77626006   -1.49562027

D 5 1 6 2 F
D 5 3 4 2 F

