%NPROCS=4
# opt=(MaxCycle=1000) freq B3LYP/6-31G(d)

 ./boats/4/glo_2w_beta_ts_boat4_B3LYP_631Gd.out

0  1
O           0.62489        -0.17699        -1.02160
C          -1.19966         0.83884         0.23302
C          -1.10693        -1.69265         0.11702
C          -1.93990        -0.43600        -0.16907
C           0.40856        -1.45755         0.22980
C           0.02139         1.07368        -0.67603
H          -2.12607        -0.40893        -1.25457
H          -0.36533         1.50723        -1.61027
H          -0.88308         0.74730         1.27874
H           0.99428        -2.16830        -0.38217
C           1.01980         2.04655        -0.03913
H           1.37739         1.63781         0.90922
H           1.88928         2.20132        -0.69512
H          -1.40702        -2.04864         1.11189
O           0.86081        -1.02919         1.32638
O           0.38808         3.29200         0.26791
H           0.20287         3.74216        -0.57225
O          -1.41356        -2.64660        -0.88961
H          -1.17956        -3.52441        -0.55209
O          -3.16003        -0.53621         0.54678
H          -3.54836         0.35573         0.51645
O          -2.12035         1.92018         0.08692
H          -1.68029         2.69187         0.48365
O           3.34350        -1.00368         1.15408
H           3.34070        -0.55060        -0.25243
H           2.33746        -1.07215         1.34320
H           3.68202        -0.35527         1.78862
O           3.07869        -0.29573        -1.21019
H           1.65302        -0.12633        -1.16856
H           3.58685         0.48987        -1.45724

