%NPROCS=4
# opt=(MaxCycle=1000) freq B3LYP/6-31G(d)

 ./boats/4/glo_2w_alpha_ts_boat4_B3LYP_631Gd.out

0  1
O          -0.64344         0.32593         0.54326
C           1.64588         0.21069        -0.24810
C           0.22309        -1.90475        -0.20376
C           1.55842        -1.24839         0.20460
C          -0.87536        -0.86620        -0.49640
C           0.58175         1.06408         0.45119
H           1.60800        -1.27409         1.30382
H           0.93187         1.23597         1.48003
H           1.50022         0.24753        -1.34079
C           0.37872         2.42093        -0.24769
H           0.04504         2.26155        -1.27815
H          -0.39155         3.01157         0.26435
H           0.40786        -2.45407        -1.14248
O           1.61419         3.14659        -0.34602
H           1.80867         3.51679         0.52982
O          -0.20329        -2.78096         0.81656
H          -1.17582        -2.79266         0.75382
O           2.62399        -1.98809        -0.36850
H           3.41955        -1.44611        -0.22699
O           2.95320         0.67263         0.07117
H           2.99773         1.58472        -0.26975
H          -0.75311        -0.38055        -1.47242
O          -2.09796        -1.37256        -0.28815
O          -3.80358         0.27389        -0.88135
H          -2.84128        -0.74978        -0.63462
H          -3.51604         0.91095        -0.14144
H          -4.69069        -0.05050        -0.66855
O          -2.72750         1.58303         0.87634
H          -1.84953         1.08764         0.80171
H          -3.06980         1.35713         1.75445

