%NPROCS=4
# opt=(MaxCycle=1000) freq B3LYP/6-31G(d)

 ./boats/4/glo_1w_beta_ts_boat4_B3LYP_631Gd_r.out

0  1
O          -1.72249         0.33894         0.46734
C           0.65568         0.40726        -0.15414
C          -0.24885        -1.79894         0.82754
C           0.98375        -1.02494         0.32393
C          -1.53239        -1.51851         0.06327
C          -0.50826         1.06083         0.62052
H           1.63473        -0.91357         1.20609
H          -0.26850         1.03806         1.69009
H           0.38841         0.34774        -1.21887
H          -2.45554        -1.68587         0.65565
C          -0.80216         2.50248         0.18763
H          -0.99829         2.53711        -0.88983
H          -1.70362         2.85601         0.70511
H          -0.03350        -2.86445         0.65075
O          -1.54846        -1.61724        -1.17725
O           0.29871         3.39029         0.39985
H           0.42667         3.48342         1.35797
O          -0.37313        -1.52597         2.22016
H          -1.20950        -1.90771         2.53090
O           1.59880        -1.79506        -0.68102
H           2.47597        -1.39381        -0.88143
O           1.84915         1.18942         0.02389
H           1.60577         2.13239        -0.07216
O          -2.95745         0.31617        -1.66035
H          -2.21421         0.56825        -0.39985
H          -2.56986        -0.61568        -1.71013
H          -2.59552         0.78378        -2.42845
O           3.92430        -0.29053        -1.00978
H           4.49547        -0.47069        -0.24775
H           3.33928         0.43946        -0.70786

