%NPROCS=4
# opt=(MaxCycle=1000) freq B3LYP/6-31G(d)

 ./boats/4/glo_2w_alpha_ts_boat4_B3LYP_631Gd_r.out

0  1
O          -0.62362         0.35997         0.58565
C           1.64163         0.21185        -0.24652
C           0.23234        -1.91206        -0.20073
C           1.55797        -1.24707         0.20652
C          -0.91869        -0.96010        -0.55322
C           0.59494         1.08987         0.46535
H           1.60996        -1.27321         1.30546
H           0.97464         1.27152         1.48154
H           1.49120         0.25201        -1.33762
C           0.38050         2.42842        -0.24798
H           0.04627         2.25836        -1.27660
H          -0.39130         3.02187         0.25949
H           0.43398        -2.46129        -1.13915
O           1.61490         3.14798        -0.34711
H           1.80723         3.52606         0.52576
O          -0.20038        -2.78236         0.81566
H          -1.17722        -2.75539         0.74766
O           2.62429        -1.98599        -0.36861
H           3.42240        -1.44923        -0.22214
O           2.95004         0.67326         0.07129
H           3.00097         1.58261        -0.27547
H          -0.76697        -0.36510        -1.46846
O          -2.07551        -1.39471        -0.28520
O          -3.83550         0.26642        -0.90881
H          -3.18897        -0.50703        -0.76596
H          -3.31616         1.15635         0.17277
H          -4.71949        -0.09390        -0.74432
O          -2.73280         1.60255         0.88627
H          -1.49409         0.92751         0.73315
H          -3.10517         1.33660         1.74134

