%NPROCS=4
# opt=(calcfc,ts,noeigentest,maxcycle=1000,cartesian) b3lyp 6-31g(d) freq

 ./6/glo_2w_alpha_boat6_B3LYP_631Gd_iopt.out

0  1
C          -0.26959         0.94116         0.56346
C           2.15861         0.36822         0.05716
C           1.13413         0.69115         1.16101
C           1.69167        -0.76105        -0.91518
H           1.90786        -0.40599        -1.93032
H           3.07602         0.01647         0.54632
H          -1.00913         0.58758         1.29489
H           1.47219         1.60517         1.66212
C           0.17084        -0.99787        -0.83089
O          -0.50552         0.23961        -0.68134
C          -0.55256         2.40790         0.24318
H          -0.62615         2.97806         1.17469
H           0.26264         2.82214        -0.35919
O          -1.81082         2.55197        -0.42761
H          -1.64450         2.34058        -1.35963
O           2.40011        -1.97303        -0.74429
H           1.88616        -2.49547        -0.10401
O           2.38584         1.59582        -0.64203
H           3.09919         1.44556        -1.28159
O           1.11946        -0.31440         2.15963
H           0.67427        -1.08557         1.75450
O          -2.67245        -2.44103         0.20425
H          -1.02692        -2.17000         0.22158
H          -3.07666        -1.55623         0.00937
H          -2.98969        -2.67635         1.08881
O          -0.06467        -1.88746         0.23473
H          -0.21884        -1.41548        -1.76538
O          -3.49192         0.08625        -0.38755
H          -4.00736         0.67731         0.18079
H          -2.65795         0.57336        -0.53168

