%nprocshared=12
# IRC=(CalcFC,Forward,MaxCycle=1000,MaxPoints=10) B3LYP/6-31G(d)

 glo_2w_alpha_ts_chair2_B3LYP_631Gd.out

0  1
C          -0.81789        -0.65799        -0.65406
O          -0.59805         0.34231         0.57489
C           0.36601        -1.64131        -0.60171
C           1.75037        -1.00177        -0.40387
C           1.77489        -0.05627         0.80506
C           0.67739         1.01834         0.72119
H           0.35798        -2.17693        -1.56902
H           2.74044         0.45596         0.83935
H           0.64109         1.48155         1.71294
H           2.48155        -1.80019        -0.21962
O           0.11922        -2.55164         0.46108
O           2.12060        -0.23703        -1.56058
O           1.65772        -0.80097         2.00366
H           2.23449        -0.84131        -2.31026
H          -0.86550        -2.56240         0.49977
H           0.96430        -1.47217         1.84376
C           0.85876         2.11254        -0.36218
O           2.21464         2.45801        -0.58061
H           0.34898         3.02420        -0.03319
H           0.37959         1.79106        -1.29468
H           2.58460         1.72368        -1.10220
H          -0.76875         0.00777        -1.52882
O          -1.95448        -1.27838        -0.44416
H          -3.04902        -0.49205        -0.70681
H          -1.62045         1.03798         0.76294
O          -3.82679         0.27974        -0.75607
H          -4.65122        -0.13583        -0.45923
O          -2.62945         1.63209         0.87675
H          -2.95532         1.47998         1.77922
H          -3.30722         1.08445         0.15962

