%nprocshared=12
# IRC=(CalcFC,Forward,MaxCycle=1000,MaxPoints=10) B3LYP/6-31G(d)

 glo_2w_beta_ts_chair2_B3LYP_631Gd.out

0  1
C           0.47791        -1.23546         0.29165
O           0.46024        -0.33720        -0.99986
C          -0.99407        -1.53666         0.61521
C          -1.76995        -0.21745         0.80047
C          -1.74340         0.62667        -0.49302
C          -0.30518         0.91608        -0.95627
H          -0.99565        -2.08825         1.56571
H          -2.20703         1.59353        -0.28426
H          -0.38712         1.20099        -2.00945
H          -2.81606        -0.44958         1.02679
O          -1.64937        -2.29565        -0.40274
O          -1.22414         0.51166         1.90298
O          -2.51101         0.03133        -1.52455
H          -0.28512         0.21399         1.99545
H          -1.08743        -3.05269        -0.63223
H          -2.25796        -0.90986        -1.55085
C           0.44822         2.02498        -0.15104
O          -0.40801         2.89057         0.56448
H           0.99967         2.66181        -0.85365
H           1.17651         1.54530         0.51110
H          -0.80339         2.33723         1.26981
O           1.10838        -0.68749         1.31666
H           2.48199        -0.56519         1.10558
H           0.97736        -2.11479        -0.16453
H           1.65316        -0.16462        -1.36488
O           3.49368        -0.41962         0.74026
H           3.99255        -1.23372         0.90958
O           2.80647        -0.07370        -1.56837
H           3.01775         0.83154        -1.85013
H           3.24959        -0.23391        -0.54707

