%NPROCS=4
# opt=(calcfc,ts,noeigentest,maxcycle=1000,cartesian) b3lyp 6-31g(d) freq

 ./3/glo_1w_alpha_boat3_b3lyp_631Gd_iopt.out

0  1
C           0.92694         0.49209        -0.51237
C          -1.11798         1.34661         0.64863
O          -0.64530        -1.01883         0.61550
C          -1.72571        -0.05421         0.56340
C           0.28275        -0.90912        -0.48056
C          -0.15240         1.57093        -0.52337
H          -0.73296         1.52293        -1.45258
H          -0.53438         1.37664         1.58588
H          -0.27376        -1.04497        -1.41832
H           1.55752         0.61818         0.37459
C           1.32178        -2.05116        -0.31714
H           1.20958        -2.77585        -1.13507
H           1.11428        -2.56866         0.62269
O           2.67861        -1.61700        -0.24109
H           2.80642        -0.98437        -0.97512
O          -2.13726         2.32055         0.66124
H          -1.69694         3.15459         0.42034
O           0.37080         2.89831        -0.48375
H           1.04357         2.93010         0.21770
O           1.83123         0.58673        -1.62422
H           1.30797         0.68829        -2.43647
H          -2.30976        -0.27722         1.46510
O          -2.47971        -0.17924        -0.59461
H          -2.88212        -1.07604        -0.56214
O          -2.71296        -2.87275         0.02915
H          -3.23354        -3.15846         0.79517
H          -1.85345        -2.58572         0.39838
O           3.12046         0.12141         1.97437
H           3.06288        -0.60876         1.32309
H           3.99534         0.50499         1.81236

