# opt freq hf/gen

H2 density at nuclei

0 1
H                  0.00000000    0.00000000     0.37000000
H                  0.00000000    0.00000000    -0.37000000

H 0
 S   3 1.00       0.000000000000
     2.611678265	0.154328967
     0.475720456	0.535328142
     0.128748521	0.444634542
 S   1 1.00       0.000000000000
     2.11D-01     0.1000000000D+01
 ****


