# hf/gen  opt freq

Title Card Required

0 1
 O                 -1.05425791    1.44957360   -0.10711141
 O                 -2.21585791    1.44957360   -0.10711141

O 0
STO 1S 6 7.668943
STO 2S 3 2.318057
STO 2P 3 2.961287
STO 2S 1 1.182671
STO 2P 1 1.327073
****

