# opt=(calcfc,ts,noeigentest,maxcycles=10000,cartesian) freq b3lyp 6-31g(d) 

glo_2w_ALPHA_B3LYP_6-31G_d

0 1
   6           0       -0.048714    1.477962    0.354800
   8           0       -0.374408   -0.085844    0.807582
   1           0       -2.841368   -1.188960    0.383415
   1           0       -3.653340    2.375045   -0.012431
   8           0       -3.268039    1.615957   -0.476606
   1           0       -3.164383    0.466396    0.347426
   8           0       -2.834310   -0.366883    0.945036
   1           0       -1.762301   -0.209605    0.992895
   6           0        1.689677   -1.037514   -0.068259
   6           0        0.142699   -0.981289   -0.192178
   1           0        1.993081   -1.886524    0.557420
   1           0       -0.094672   -0.562672   -1.180018
   8           0        2.271467   -1.243184   -1.343728
   1           0        2.198135   -0.372154   -1.784644
   6           0       -0.492115   -2.361419   -0.086148
   8           0       -1.877091   -2.402234   -0.500587
   1           0       -0.487696   -2.711906    0.950220
   1           0        0.093024   -3.062896   -0.692833
   1           0       -1.902612   -2.246578   -1.458711
   1           0       -0.297815    1.924061    1.330815
   8           0       -0.751547    1.829384   -0.677472
   1           0       -2.255249    1.822956   -0.600312
   6           0        1.484603    1.480964    0.060548
   1           0        1.909401    2.389567    0.513247
   6           0        2.204362    0.245579    0.626495
   1           0        3.275772    0.323862    0.417338
   8           0        1.659578    1.503214   -1.352896
   1           0        0.764154    1.778293   -1.671034
   8           0        2.075766    0.176110    2.040417
   1           0        1.131465    0.003259    2.201701

