%nprocshared=12
%chk=glo_2w_alpha_ts_chair2_B3LYP_6-31Gd.chk
# opt=(calcfc,ts,noeigentest,maxcycle=1000,cartesian) freq B3LYP/6-31G(d)

Glo_A_ch2_GS_b3lyp_631Gd

0 1
 C                 -1.47550300   -0.08828400   -0.91316700
 O                 -1.05561900    0.80314400    0.37767800
 C                 -0.97856900   -1.49500200   -0.56508700
 C                  0.48967400   -1.54731700   -0.10674600
 C                  0.79219700   -0.57121800    1.04814000
 C                  0.33314800    0.87429700    0.78599400
 H                 -1.08227200   -2.10109300   -1.48442400
 H                  1.87100200   -0.55461200    1.23212200
 H                  0.33066200    1.37473500    1.75934900
 H                  0.70483000   -2.55525600    0.26952600
 O                 -1.81479700   -2.01036400    0.45746700
 O                  1.34492500   -1.24806700   -1.22923100
 O                  0.18725300   -1.08041200    2.22587400
 H                  1.22094900   -1.94575300   -1.89288600
 H                 -2.66686200   -1.54729700    0.28784800
 H                 -0.72524800   -1.33068400    1.98014900
 C                  1.18397600    1.72864400   -0.17146200
 O                  2.44943200    1.98929200    0.39335800
 H                  0.66774400    2.68820400   -0.30704800
 H                  1.26301900    1.25597500   -1.15887500
 H                  3.05854500    1.27345900    0.10497700
 H                 -0.89506600    0.38411600   -1.72127000
 O                 -2.78256800   -0.01213600   -0.97848400
 H                 -3.58855449    0.76864059   -0.55330909
 H                 -1.78624400    1.73330600    0.25225900
 O                 -4.33692921    1.60707880   -0.13264695
 H                 -4.95895761    1.15467366    0.46132620
 O                 -2.42779815    2.27196900    1.11147402
 H                 -2.52042175    3.09511373    1.59670964
 H                 -3.48637334    1.96568520    0.63649106

