%nprocshared=12
# opt=(calcfc,ts,noeigentest,maxcycle=1000,cartesian) freq B3LYP/6-31G(d)

Glo_A_ch2_GS_b3lyp_631Gd

0 1
 C                  1.04153965    1.34919139   -0.46468586
 O                  0.03947835    0.46066261   -1.63720014
 C                  1.55450100    0.38749300    0.52156800
 C                  0.48208900   -0.51705000    1.15217900
 C                 -0.23448800   -1.33710200    0.05870100
 C                 -0.82393600   -0.42030900   -1.02733600
 H                  1.96537800    1.05821900    1.28876600
 H                 -1.06720800   -1.87705100    0.51461200
 H                 -0.97666900   -1.05643000   -1.90216000
 H                  0.96676900   -1.20976100    1.84672300
 O                  2.57367200   -0.46024300   -0.00584700
 O                 -0.45277800    0.27045100    1.90295900
 O                  0.62113200   -2.32622800   -0.48908200
 H                 -0.43768600    1.17792700    1.54123000
 H                  3.23564900    0.08939400   -0.45470100
 H                  1.46211000   -1.88762300   -0.71003200
 C                 -2.17515400    0.26883100   -0.64485100
 O                 -2.84905500   -0.32358800    0.44720300
 H                 -2.86094200    0.20181400   -1.49494200
 H                 -1.98828700    1.33587300   -0.46790700
 H                 -2.27650100   -0.17863200    1.22649000
 O                  0.40753770    2.27347065    0.15349646
 H                 -0.21707829    2.88842167   -0.66607057
 H                  1.83340665    1.80377239   -1.07850086
 H                 -0.53358681    1.49040056   -1.86355402
 O                 -0.30794136    2.66363066   -1.83825074
 H                 -0.22278902    3.28165768   -2.56790250
 O                 -3.00888491    0.78138589    2.69345266
 H                 -2.04888491    0.78138589    2.69345266
 H                 -3.32933949    1.68632173    2.69345266

