%NPROCS=22
# opt=(modredundant,MaxCycle=1000) freq B3LYP/6-31G(d)

boat4_Alpha_B3LYP_6-31G_d

0 1
 O                  0.40874155   -1.43600796    0.01014070
 C                 -0.63186645    0.87288004   -0.45250530
 C                  1.91235855    0.56312104   -0.21304430
 C                  0.70356755    1.49354904   -0.02379430
 C                  1.45013255   -0.71536596   -0.74111930
 C                 -0.80012645   -0.50569796    0.19937970
 H                  0.63849355    1.82761004    1.01952970
 H                 -0.90400345   -0.38504296    1.28477970
 H                 -0.66213945    0.79358304   -1.54646430
 C                 -2.03033545   -1.25125296   -0.32394330
 H                 -1.93166345   -1.43584396   -1.39917530
 H                 -2.13149145   -2.23150996    0.15488470
 H                  2.67547055    1.01481304   -0.85664830
 O                 -3.21750445   -0.49323796   -0.10849930
 H                 -3.54859045   -0.72990496    0.77876170
 O                  2.54528355    0.36249204    1.06926470
 H                  3.09034855   -0.44281996    0.95216670
 O                  0.89145455    2.69175204   -0.80076730
 H                  0.08379155    3.22170804   -0.64500430
 O                 -1.68805345    1.77289304   -0.09088330
 H                 -2.52967645    1.29467604   -0.25754030
 H                  1.10720255   -0.63396996   -1.77938730
 O                  2.56787655   -1.60865396   -0.75099030
 H                  2.28202939   -2.35773750   -0.20043529
 O                  1.18146303   -3.12948951    1.04135879
 H                  0.33240799   -2.71058875    1.20019109
 H                  1.59507655   -3.34381090    1.88075750
 O                 -1.27675327    4.44290790   -0.64752571
 H                 -1.53656964    3.53392994   -0.48062901
 H                 -1.08974062    4.88093751    0.18599473

D 2 4 3 5 F
D 2 6 1 5 F

