%nproc=8
# opt=(modredundant,MaxCycle=1000) freq B3LYP/6-31G(d)

./opt_IRC/b3lyp/boats/6/glo_1w_alpha_ircf_boat6_B3LYP_631Gd_opt.out

0 1
 C                 -0.45380000    0.83320000    0.25110000
 C                  1.52210000   -0.77770000    0.10340000
 C                  1.05810000    0.69730000    0.04060000
 C                  0.37050000   -1.75590000    0.35950000
 H                  0.68640000   -2.78850000    0.17240000
 H                  2.22860000   -0.88090000    0.93640000
 H                 -0.72320000    0.61630000    1.29200000
 H                  1.28190000    1.07520000   -0.96610000
 C                 -0.80800000   -1.41340000   -0.57390000
 O                 -1.19840000   -0.05030000   -0.59360000
 C                 -0.93870000    2.26260000   -0.02940000
 H                 -0.44680000    2.98550000    0.62860000
 H                 -0.75680000    2.53680000   -1.07370000
 O                 -2.35550000    2.34470000    0.18830000
 H                 -2.58910000    3.28490000    0.08640000
 O                 -0.04570000   -1.70040000    1.73200000
 H                 -0.95280000   -2.07450000    1.73040000
 O                  2.28130000   -1.11490000   -1.07360000
 H                  1.71330000   -0.98410000   -1.85450000
 O                  1.79970000    1.52330000    0.93510000
 H                  2.74820000    1.42500000    0.68050000
 O                 -3.95010000   -0.14480000   -0.45590000
 H                 -2.70760000   -1.65020000   -0.46110000
 H                 -3.17090000    0.45560000   -0.43080000
 H                 -4.56430000    0.33610000    0.12250000
 O                  4.25870000    0.81560000   -0.21580000
 H                  5.21920000    0.67790000   -0.16530000
 H                  3.94940000   -0.00960000   -0.64360000
 O                 -1.93440000   -2.15610000   -0.12250000
 H                 -0.58700000   -1.71290000   -1.60330000

D 1 3 2 4 F
D 1 10 9 4 F

