%NPROCS=8
# opt=(modredundant,MaxCycle=1000) freq B3LYP/6-31G(d)

boat2_Alpha_B3LYP_6-31G_d

0 1
 H                  0.95827800    1.20905800    0.94578700
 C                  1.00072200    0.54170200    0.07653300
 C                 -0.64902500   -1.37163900   -0.36231300
 C                 -1.34548200    1.08475200   -0.63643000
 C                 -1.78765300   -0.34018800   -0.26679300
 O                  0.08070400    1.07583700   -0.94158100
 C                  0.55848100   -0.88326500    0.44610400
 H                 -1.00194300   -2.31385200    0.07536700
 H                 -2.60558900   -0.64540900   -0.92981100
 H                  1.38216400   -1.59853600    0.33750800
 C                  2.40802600    0.56388200   -0.51611600
 H                  2.49371905   -0.18007489   -1.31556093
 H                  3.15873284    0.31754336    0.24306721
 O                  2.69222575    1.85077124   -1.05643314
 H                  3.37614746    2.24548062   -0.48578577
 O                 -2.35008900   -0.34538500    1.06191900
 H                 -1.60636100   -0.48756800    1.68797700
 O                 -0.25340700   -1.65666400   -1.70551700
 H                 -1.05848600   -1.69245600   -2.25249800
 O                  0.19080400   -0.88885100    1.84459800
 H                  1.03054700   -0.80438000    2.33904800
 H                 -1.86512000    1.42408600   -1.53975800
 O                 -1.58287800    2.00571700    0.40453600
 H                 -1.27292500    2.84690600    0.06682400
 H                  1.74200118    3.19067497   -1.86253006
 H                 -1.95232003    5.11669858   -1.33513229
 O                 -1.62457529    4.36181358   -0.82452828
 H                 -0.89964654    3.96240159   -1.38223882
 O                  0.81125692    3.49316225   -1.83115279
 H                  0.29428156    2.67098284   -1.72515893

D 6 4 5 3 F 
D 6 2 7 3 F

