%NPROCS=4
# opt=maxcycle=1000 freq b3lyp/6-31g(d) geom=connectivity

boat1_Beta_B3LYP_6-31G_d

0 1
 H                 -1.72630300    0.21099000    1.53249200
 C                 -1.17536100   -0.15065900    0.65528400
 C                  1.01098700    1.01964000    0.16145400
 C                  0.92301800   -1.49816300    0.35773500
 C                  1.59571900   -0.29893600   -0.32923700
 O                 -0.20388200   -1.10648600    1.17824200
 C                 -0.50266000    1.04856700   -0.03168700
 H                  1.63487600   -2.01433000    1.01161500
 H                  1.49388200   -0.37529700   -1.41886400
 H                 -0.71971900    1.06249700   -1.10713300
 C                 -2.18696200   -0.84006100   -0.26502700
 H                 -2.63173700   -1.70410700    0.23997100
 H                 -1.71462500   -1.19773100   -1.18484300
 O                  0.46175100   -2.43027400   -0.61078400
 H                  0.48085990   -3.29324170   -0.16324359
 H                  1.27506500    1.19506100    1.21194900
 O                 -3.22220600    0.07517900   -0.61718200
 H                 -3.86227300   -0.42418100   -1.15627900
 O                  3.01406000   -0.29627500   -0.08215100
 H                  3.31831500    0.57870200   -0.39901700
 O                  1.61732800    2.10157500   -0.57103500
 H                  1.08336500    2.88771900   -0.33377300
 O                 -1.00372800    2.29609200    0.47406100
 H                 -1.96950300    2.27870900    0.32174700
 O                 -1.11625223   -3.53204644    2.27334167
 H                 -0.86300330   -2.62200161    1.98717435
 H                 -0.70308058   -3.65309208    3.14157519
 O                  0.05225518   -5.02755064    0.12756650
 H                 -0.47233376   -4.54320990    0.81423453
 H                 -0.61006187   -5.43208147   -0.45224467

 1 2 1.0
 2 6 1.0 7 1.0 11 1.0
 3 5 1.0 7 1.0 16 1.0 21 1.0
 4 5 1.0 6 1.0 8 1.0 14 1.0
 5 9 1.0 19 1.0
 6
 7 10 1.0 23 1.0
 8
 9
 10
 11 12 1.0 13 1.0 17 1.0
 12
 13
 14 15 1.0
 15
 16
 17 18 1.0
 18
 19 20 1.0
 20
 21 22 1.0
 22
 23 24 1.0
 24
 25 26 1.0 27 1.0
 26
 27
 28 29 1.0 30 1.0
 29
 30

