%NPROCS=8
# opt=(modredundant,MaxCycle=1000) freq B3LYP/6-31G(d)

Title Card Required

0 1
 H                  0.04915379    0.51410668   -0.67726842
 C                 -0.48727321    0.44040268    0.27700358
 C                 -2.36974921    2.09351568    0.61918458
 C                 -2.76950621   -0.38267832    0.92619558
 C                 -3.14901021    1.03353168    1.38763558
 O                 -1.65898121   -0.38397332   -0.00293342
 C                 -0.86677821    1.85661168    0.73844358
 H                 -2.97594321    1.14430968    2.46525558
 H                 -0.56517621    2.02866868    1.77927358
 C                  0.44848479   -0.25117232    1.27282758
 H                  0.68203779   -1.26550332    0.93222458
 H                 -0.00681021   -0.32868332    2.26468958
 H                 -2.68002821    2.11762668   -0.43304942
 O                  1.66131379    0.48943168    1.39096758
 H                  2.23812579   -0.01700632    1.99136758
 O                 -4.55710521    1.27174568    1.20522658
 H                 -4.66615821    2.23334468    1.35353258
 O                 -2.70252021    3.39224968    1.14580358
 H                 -2.05200121    3.99774168    0.73393258
 O                 -0.18391021    2.86206168   -0.02701742
 H                  0.77069879    2.68188968    0.08470258
 H                 -2.49542521   -1.00468032    1.78597258
 O                 -3.85802721   -0.99737432    0.27394558
 H                 -4.17901172   -0.34055749   -0.34523769
 O                 -3.55356657    0.45250945   -1.91901124
 H                 -2.59356657    0.45250945   -1.91901124
 H                 -3.87402116    1.35744528   -1.91901124
 O                 -1.10814164    5.39353348    0.01993373
 H                 -0.79748203    4.54010238   -0.29110639
 H                 -0.62561894    6.09264482   -0.42729683

D 6 4 5 3 F 
D 6 2 7 3 F

