%nproc=8
# opt=(modredundant,MaxCycle=1000) freq B3LYP/6-31G(d)

boat5_Alpha_B3LYP_6-31G_d

0 1
 O                 -0.18797801   -1.38801816   -1.08523606
 C                 -0.67246301   -0.06648616    1.01533894
 C                  1.07873099    0.73072284   -0.62276106
 C                  0.00720699    1.14888384    0.39687894
 C                  1.10026899   -0.80182116   -0.88643106
 C                 -1.25950201   -0.96985716   -0.06559606
 H                  0.49747199    1.70682484    1.20434794
 H                 -1.57009801   -1.91465716    0.39636794
 H                 -1.51078201    0.29823984    1.62077494
 H                  0.82284599    1.19958984   -1.58239806
 C                 -2.43561501   -0.40048216   -0.86254806
 H                 -2.87839701   -1.18085116   -1.49249806
 H                 -2.10957301    0.38223284   -1.55387506
 O                 -3.44394701    0.12960984   -0.01086406
 H                 -3.92387001   -0.62572316    0.37449494
 O                  2.37717399    1.22851084   -0.28106906
 H                  2.28850199    2.19243784   -0.17277706
 O                 -0.89897701    2.07296484   -0.21120706
 H                 -1.67987901    2.16224284    0.36807994
 O                  0.14405099   -0.75997416    1.95686894
 H                  0.89257999   -1.17138916    1.47060094
 H                  1.68616599   -0.97747316   -1.79644806
 O                  1.75574099   -1.51410316    0.16054394
 H                  2.26456699   -2.21530616   -0.28316306
 O                  1.29457303    3.73806228   -0.11410752
 H                  0.91592052    4.56654598    0.18893872
 H                  0.61625899    3.05875447   -0.11967191
 O                  1.73072062   -3.02813298   -1.78909423
 H                  1.65074267   -3.71945608   -1.12782583
 H                  0.90006206   -2.55164059   -1.85663198

D 5 1 6 2 F
D 5 3 4 2 F

