%NPROCS=4
# opt=(MaxCycle=1000) freq B3LYP/6-31G(d)

 ./boats/3/glo_1w_alpha_ts_boat3_B3LYP_631Gd.out

0  1
C          -0.48101        -0.19810         0.93722
C           0.68602         1.45881        -0.67899
O           1.02863        -1.03599        -0.85543
C           1.88672         0.53856        -0.53784
C          -0.20178        -1.27411        -0.12997
C          -0.42601         1.24534         0.37067
H          -0.21516         1.89784         1.23027
H           0.23485         1.26569        -1.66306
H          -0.08476        -2.22946         0.39953
H          -1.49519        -0.37614         1.30903
C          -1.28323        -1.40574        -1.20589
H          -0.95117        -2.12738        -1.96365
H          -1.46165        -0.44415        -1.68871
O          -2.54576        -1.79643        -0.65591
H          -2.43715        -2.64562        -0.19908
O           1.23862         2.76623        -0.63562
H           0.50166         3.38017        -0.78658
O          -1.62190         1.63801        -0.29469
H          -2.40497         1.35893         0.23250
O           0.36354        -0.35595         2.06007
H           1.24725        -0.01868         1.79337
H           2.45989         0.43829        -1.47496
O           2.49622         0.42633         0.56256
O           3.02156        -1.97031         0.24221
H           3.12467        -1.00845         0.52843
H           1.78171        -1.63353        -0.48991
H           3.77282        -2.16396        -0.33922
O          -3.85869         0.31595         0.68309
H          -4.62448         0.63075         0.17936
H          -3.54149        -0.47513         0.19556

