%NPROCS=4
# opt=(MaxCycle=1000) freq B3LYP/6-31G(d)

 ./boats/3/glo_2w_alpha_ts_boat3_B3LYP_631Gd_r.out

0  1
C           1.02123         0.22806         1.09019
C           0.47402        -1.50664        -0.75604
O          -0.50685         0.73314        -0.80360
C          -0.93456        -0.94403        -0.62893
C           0.52576         1.26629         0.06743
C           1.34997        -1.15258         0.45627
H           1.16438        -1.89955         1.23887
H           0.94191        -1.07125        -1.65048
H           0.07490         2.08941         0.63627
H           1.94474         0.64341         1.51112
C           1.62819         1.81407        -0.84532
H           1.16461         2.41601        -1.64134
H           2.17805         0.99485        -1.31426
O           2.58800         2.55383        -0.10671
H           2.14916         3.34549         0.24280
O           0.31176        -2.90664        -0.91266
H           1.20263        -3.27380        -1.03140
O           2.69335        -1.25480        -0.03025
H           3.29505        -1.15842         0.72483
O           0.11747         0.08776         2.16947
H          -0.64018        -0.42346         1.80383
H          -1.49546        -0.97721        -1.57720
O          -1.57138        -1.13287         0.45638
O          -2.64703         1.92262        -0.54896
H          -1.40289         1.27406        -0.70757
H          -3.03330         2.13433        -1.41258
O          -3.85308        -0.07588         0.34299
H          -3.00697        -0.63945         0.41198
H          -3.24617         1.19440        -0.14324
H          -4.17134         0.01694         1.25371

