%NPROCS=4
# opt=(calcfc,ts,noeigentest,maxcycle=1000,cartesian) b3lyp 6-31g(d) freq

 ./4/glo_2w_beta_boat4_b3lyp_631Gd_iopt.out

0  1
O           0.45180         0.56214        -0.82635
C          -1.31654        -0.09227         0.69254
C           0.06218        -1.88285        -0.54468
C          -0.82463        -1.55889         0.66893
C           1.04557        -0.76002        -0.92015
C          -0.96677         0.63426        -0.61398
H          -1.71617        -2.19226         0.57225
H          -1.49867         0.15710        -1.44752
H          -0.76562         0.42264         1.49857
H           1.34086        -0.87090        -1.97730
C          -1.29662         2.13035        -0.57475
H          -0.77677         2.60484         0.26347
H          -0.95393         2.61072        -1.50075
H           0.66177        -2.76734        -0.29712
O           2.14470        -0.84490        -0.08350
H           2.84448        -0.20446        -0.37259
O          -2.69116         2.36798        -0.34842
H          -3.17427         2.07897        -1.13946
O          -0.83504        -2.14703        -1.62556
H          -0.30645        -2.43431        -2.38655
O          -0.08466        -1.89067         1.84081
H          -0.69194        -1.79193         2.59109
O          -2.71135        -0.10486         0.95203
H          -3.01903         0.81400         0.83357
O           1.85679         1.61649         1.43766
H           1.91585         0.71222         1.79345
H           1.32532         1.44996         0.63043
O           3.92879         1.19637        -0.32384
H           4.75858         0.96482         0.12051
H           3.35782         1.57822         0.38804

