# b3lyp/6-31g(d) opt freq

glo_2w_alpha_ircr_boat5_B3LYP_631Gd

0 1
  8   0.333176    -0.677517    -1.057666
  6  -0.823256    -0.115654     1.068473
  6  -0.314960     1.767769    -0.649141
  6  -1.238038     1.242403     0.486137
  6   0.922770     0.907794    -0.987469
  6  -0.554216    -1.154723    -0.025271
  1  -1.200824     1.977653     1.299343
  1  -0.040999    -2.009976     0.451444
  1  -1.654878    -0.505732     1.677447
  1  -0.944152     1.851680    -1.540665
  6  -1.824824    -1.680393    -0.723814
  1  -1.541724    -2.473236    -1.434780
  1  -2.288623    -0.870242    -1.289118
  8  -2.806605    -2.143731     0.201640
  1  -2.506815    -2.992968     0.562079
  8   0.185061     3.062053    -0.360700
  1   1.039963     2.895743     0.083576
  8  -2.559703     1.175785    -0.057921
  1  -3.140518     0.758025     0.605765
  8   0.301663     0.117812     1.906772
  1   0.699806    -0.740804     2.159712
  1   1.171492     0.973505    -2.059310
  8   1.928129     1.059152    -0.193941
  1   2.766367    -1.555532     0.087866
  8   2.259439    -2.131157    -0.810544
  1   1.995387    -3.010658    -0.506203
  1   1.281834    -1.446592    -1.025212
  8   3.092630    -0.716896     0.965145
  1   4.038646    -0.522769     0.891359
  1   2.571011     0.194711     0.524358
 
