%nprocshared=20
# b3lyp/6-31g(d) opt freq

Title Card Required

0 1
 O                 -1.46910400   -0.14513700   -1.15616500
 C                 -0.64691200    0.74189200    1.01086500
 C                  1.08057100   -0.64292500   -0.40479400
 C                  0.60852000   -0.17241600    0.98556400
 C                  0.04244300   -1.45483400   -1.17614900
 C                 -1.33026600    1.00928100   -0.34301500
 H                  0.34467500   -1.07834900    1.54489500
 H                 -2.34317800    1.38542900   -0.11847400
 H                 -0.33913400    1.71509200    1.41080400
 H                  1.48760600    0.19015600   -0.97859800
 C                 -0.64228700    2.10791700   -1.16368700
 H                 -1.03691300    2.06790000   -2.18781500
 H                  0.44025300    1.97107200   -1.21696000
 O                 -0.84450900    3.37127500   -0.54912700
 H                 -1.74828700    3.65872000   -0.75044800
 O                  2.15524200   -1.57233600   -0.27668900
 H                  1.74492600   -2.42248500   -0.03574500
 O                  1.71660100    0.48854800    1.60612800
 H                  1.64869900    0.36767000    2.56473500
 O                 -1.57194200    0.11759000    1.93560300
 H                 -2.25435400    0.76996900    2.16245700
 H                  0.05094500   -1.34745500   -2.27102900
 O                 -0.38183900   -2.48733300   -0.63704800
 H                 -2.02226500   -2.47798200    0.03827400
 O                 -2.74975000   -1.85167800    0.24407400
 H                 -2.46303800   -1.42237300    1.07598100
 H                 -2.13564900   -0.77421300   -0.71498700
 O                  3.90104200    0.68775200   -0.37794500
 H                  3.40266200    0.83292700    0.44416200
 H                  3.79962500   -0.27148800   -0.49107300

