%NPROCS=18
# opt=(TS,CalcFC,NoEigenTest,MaxCycle=500,cartesian) Freq B3LYP 6-31G(d)

boat1_Alpha_B3LYP_6-31G_d

0 1
1           0        0.782078   -0.442714   -1.591576
6           0        0.922783   -0.607105   -0.514018
6           0       -0.799856    1.148554    0.064524
6           0       -1.661364   -1.143360   -0.420749
6           0       -1.785736    0.069015    0.502826
8           0       -0.011620   -1.589628   -0.032942
6           0        0.653745    0.710969    0.232125
1           0       -1.543276   -0.248820    1.529664
1           0        0.842700    0.543968    1.307155
6           0        2.320090   -1.172436   -0.252312
1           0        2.448313   -2.102274   -0.822890
1           0        2.413419   -1.406249    0.820487
1           0       -0.977904    1.369293   -0.996341
8           0        3.284976   -0.191821   -0.651397
1           0        4.167548   -0.524856   -0.433978
8           0       -3.120034    0.538069    0.427768
1           0       -3.083854    1.456143    0.747686
8           0       -1.073303    2.299111    0.863182
1           0       -0.427386    2.971864    0.590805
8           0        1.440580    1.787806   -0.258437
1           0        2.357574    1.463434   -0.323637
1           0       -2.085327   -2.067119    0.005498
8           0       -1.784367   -0.942079   -1.682623
8           0        0.177547   -3.633984   -1.316418
1           0        0.121470   -2.632641   -0.624109
1           0       -0.711151   -3.499938   -2.082981
1           0        0.048983   -4.431759   -0.779629
8           0       -1.635039   -3.085347   -2.814031
1           0       -1.785276   -2.042173   -2.346954
1           0       -2.456484   -3.580674   -2.669092

