%NPROCS=4
# opt=maxcycle=1000 freq b3lyp/6-31g(d)

boat1_Beta_B3LYP_6-31G_d

0 1
 H                 -1.69455757    0.17660310    1.55585599
 C                 -1.14361557   -0.18504590    0.67864799
 C                  1.04273243    0.98525310    0.18481799
 C                  1.08592399   -1.57813742    0.28559969
 C                  1.62746443   -0.33332290   -0.30587301
 O                 -0.36678799   -1.02651158    1.25037731
 C                 -0.47091457    1.01418010   -0.00832301
 H                  1.79778199   -2.09430442    0.93947969
 H                  1.52562743   -0.40968390   -1.39550001
 H                 -0.68797357    1.02811010   -1.08376901
 C                 -2.15521657   -0.87444790   -0.24166301
 H                 -2.59999157   -1.73849390    0.26333499
 H                 -1.68287957   -1.23211790   -1.16147901
 O                  0.62465699   -2.51024842   -0.68291931
 H                  1.30681043    1.16067410    1.23531299
 O                 -3.19046057    0.04079210   -0.59381801
 H                 -3.83052757   -0.45856790   -1.13291501
 O                  3.04580543   -0.33066190   -0.05878701
 H                  3.35006043    0.54431510   -0.37565301
 O                  1.64907343    2.06718810   -0.54767101
 H                  1.11511043    2.85333210   -0.31040901
 O                 -0.97198257    2.26170510    0.49742499
 H                 -1.93775757    2.24432210    0.34511099
 O                 -0.83969806   -3.32893229    0.77824992
 H                 -0.13903029   -3.29709993   -0.19542938
 H                 -0.60766342   -2.17009867    0.97800328
 O                  0.38089882    4.59789450    0.06123941
 H                 -0.29388939    4.01316418    0.41387425
 H                  0.81457785    5.05885447    0.78306931
 H                 -1.70377396   -3.33223706    0.35996544

