# b3lyp/6-31g(d) opt freq

glo_2w_alpha_ircr_boat2_B3LYP_631Gd

0 1
  6   0.075133    -1.388086     0.391532
  8   0.372629     0.038654     0.782542
  1   2.902784     1.193514     0.418191
  1   3.675112    -2.312881     0.042566
  8   3.253551    -1.603887    -0.465839
  1   3.281760    -0.771965     0.121799
  8   2.920231     0.377551     0.958589
  1   1.951729     0.228990     1.109150
  6  -1.669352     1.043210    -0.068303
  6  -0.126870     0.974559    -0.200056
  1  -1.966295     1.891794     0.559969
  1   0.107496     0.572904    -1.193406
  8  -2.254442     1.254405    -1.340484
  1  -2.180009     0.390710    -1.792099
  6   0.525165     2.349644    -0.076032
  8   1.895866     2.405366    -0.500020
  1   0.523212     2.687899     0.964676
  1  -0.079642     3.050676    -0.665771
  1   1.921793     2.255756    -1.458679
  1   0.320537    -1.914034     1.321495
  8   0.790304    -1.811540    -0.687423
  1   1.810933    -1.801821    -0.556598
  6  -1.447608    -1.474481     0.058750
  1  -1.858316    -2.389162     0.507474
  6  -2.182632    -0.241674     0.626410
  1  -3.251926    -0.329539     0.414107
  8  -1.633790    -1.493373    -1.355186
  1  -0.775796    -1.798921    -1.715989
  8  -2.055761    -0.176803     2.040581
  1  -1.117283     0.012833     2.210386
 
