# b3lyp/6-31g(d) opt freq

glo_2w_beta_ircr_boat2_B3LYP_631Gd

0 1
  6   0.916554    -0.308548    -1.382647
  8  -0.270511     0.752722    -0.776328
  1   0.490691     3.129157     0.904002
  1   2.992406     0.670565     1.072423
  8   3.028273     1.367618     0.392690
  1   2.226433     1.917700     0.616798
  8   0.761617     2.199435     0.890433
  1   0.289965     1.730027     0.102425
  6  -1.104925    -0.839332     0.951186
  6  -1.429898     0.122117    -0.230728
  1  -1.351555    -0.367320     1.910709
  1  -1.873120    -0.498959    -1.026649
  8  -1.933244    -1.992599     0.874461
  1  -1.629659    -2.465213     0.077977
  6  -2.484333     1.155288     0.200690
  8  -2.897274     2.035836    -0.826149
  1  -2.069899     1.793039     0.989624
  1  -3.328323     0.594906     0.635538
  1  -3.273082     1.503361    -1.544594
  1   2.515904     0.708527    -0.754120
  6   0.967215    -1.496944    -0.395518
  1   2.018401    -1.800245    -0.306556
  6   0.391918    -1.226640     1.012393
  1   0.429232    -2.177763     1.559157
  8   0.196428    -2.553012    -1.008771
  1   0.518348    -3.399001    -0.659868
  8   1.198859    -0.317482     1.750733
  1   0.816935     0.582382     1.718741
  8   2.024460     0.370428    -1.601469
  1   0.429893    -0.600703    -2.315517
 
