# b3lyp/6-31g(d) irc=(calcfc,forward)

glo_1w_alpha_ts_boat4_B3LYP_631Gd

0 1
  8  -1.272092     0.430987    -0.688501
  6   1.037931     0.333659    -0.160358
  6  -0.397679    -1.739982     0.447665
  6   1.004768    -1.176372     0.186605
  6  -1.502142    -1.282029    -0.501472
  6  -0.282215     1.061790     0.129254
  1   1.548910    -1.287503     1.136907
  1  -0.532403     0.966540     1.194856
  1   1.206601     0.408568    -1.245375
  6  -0.245493     2.539568    -0.291216
  1  -0.001117     2.607480    -1.354918
  1  -1.232410     3.001535    -0.144115
  1  -0.318978    -2.831156     0.310857
  8   0.769244     3.286105     0.393276
  1   0.517359     3.350495     1.328881
  8  -0.787831    -1.418182     1.772232
  1  -1.763393    -1.500993     1.742019
  8   1.584431    -1.954656    -0.841106
  1   2.527576    -1.677038    -0.900918
  8   2.133860     0.919749     0.557941
  1   2.061733     1.889531     0.445408
  1  -1.328028    -1.512965    -1.558927
  8  -2.700097    -1.456594    -0.013887
  8  -3.637551     0.671824    -0.552873
  1  -3.442495    -0.434978    -0.346203
  1  -2.431347     0.794851    -0.592656
  1  -3.986065     1.045380     0.273419
  8   4.078506    -0.735816    -0.532981
  1   4.537918    -1.188900     0.190193
  1   3.597349     0.002010    -0.095101
 
