# b3lyp/6-31g(d) opt freq

glo_1w_alpha_ircf_boat3_B3LYP_631Gd

0 1
  6  -0.481014    -0.198100     0.937217
  6   0.686021     1.458814    -0.678988
  8   1.028627    -1.035990    -0.855433
  6   1.886721     0.538563    -0.537844
  6  -0.201784    -1.274111    -0.129972
  6  -0.426006     1.245338     0.370671
  1  -0.215156     1.897842     1.230274
  1   0.234850     1.265686    -1.663061
  1  -0.084760    -2.229458     0.399529
  1  -1.495192    -0.376138     1.309026
  6  -1.283235    -1.405740    -1.205886
  1  -0.951172    -2.127384    -1.963646
  1  -1.461648    -0.444146    -1.688714
  8  -2.545762    -1.796434    -0.655908
  1  -2.437150    -2.645618    -0.199083
  8   1.238624     2.766235    -0.635616
  1   0.501663     3.380168    -0.786583
  8  -1.621895     1.638010    -0.294686
  1  -2.404975     1.358926     0.232499
  8   0.363540    -0.355945     2.060072
  1   1.247249    -0.018677     1.793371
  1   2.459890     0.438289    -1.474958
  8   2.496222     0.426330     0.562564
  8   3.021555    -1.970307     0.242213
  1   3.124670    -1.008452     0.528434
  1   1.781711    -1.633534    -0.489914
  1   3.772817    -2.163956    -0.339219
  8  -3.858691     0.315954     0.683089
  1  -4.624483     0.630752     0.179360
  1  -3.541486    -0.475127     0.195562
 
