# b3lyp/6-31g(d) opt freq

glo_1w_beta_ircf_boat3_B3LYP_631Gd

0 1
  6  -0.769559    -0.576938     0.143908
  6  -0.278883     1.849410    -0.073769
  8   1.448413     0.280161     0.781020
  6   1.170397     1.326112    -0.165218
  6   0.606317    -0.897018     0.747207
  6  -1.171536     0.821493     0.612163
  1   1.848539     2.128456     0.148057
  1  -1.024983     0.898994     1.697410
  1  -0.637797     1.988346    -1.103792
  1   0.449125    -1.170263     1.798090
  1  -0.695001    -0.572846    -0.952885
  6   1.282824    -2.086701     0.053928
  1   2.309010    -2.192946     0.423445
  1   1.340085    -1.897023    -1.030279
  8   1.404536     0.912929    -1.478145
  8   0.601572    -3.292968     0.351894
  1  -0.351668    -3.086332     0.346097
  8  -0.258656     3.086283     0.623553
  1  -1.180043     3.387378     0.678901
  8  -2.541304     1.147695     0.302438
  1  -3.089662     0.666034     0.944332
  8  -1.691163    -1.581994     0.559220
  1  -2.406975    -1.586864    -0.119089
  8   3.899664     0.059435    -0.597534
  1   2.351998     0.647992    -1.510497
  1   3.321359    -0.010127     0.188473
  1   4.598789     0.682231    -0.347198
  8  -3.514178    -0.873482    -1.388471
  1  -3.265124     0.035060    -1.118347
  1  -3.230554    -0.956557    -2.311470
 
