%NPROCS=4
# opt=(MaxCycle=1000) freq B3LYP/6-31G(d)

boat3_Beta_B3LYP_6-31G_d

0 1
 C                 -0.98597300    0.92031900    0.52768700
 C                  1.30749200    0.15779700   -0.41990900
 O                 -0.13508400   -1.36896900    1.11278700
 C                  1.26021700   -0.98217300    0.59719600
 C                 -1.13443700   -0.54228200    0.44563900
 C                  0.40939300    1.30719500    0.01199800
 H                  1.83353200   -0.74066900    1.49897000
 H                  0.94197700    1.87278600    0.78877600
 H                  1.04578800   -0.19771500   -1.41931600
 H                 -2.02227000   -0.76311300    1.05658900
 H                 -1.77031300    1.44578000   -0.02759000
 C                 -1.51704600   -1.11497100   -0.93413700
 H                 -1.54205400   -2.21035000   -0.90688300
 H                 -0.82030200   -0.83854600   -1.72378300
 O                  1.84141000   -2.14568000    0.01790100
 H                  2.76477900   -1.89456200   -0.16977500
 O                 -2.79917800   -0.63302100   -1.33259800
 H                 -3.45928400   -1.27000900   -1.00430900
 O                  2.66465600    0.62190400   -0.57021600
 H                  2.59861100    1.41384800   -1.14099200
 O                  0.31097100    2.22598700   -1.09246600
 H                 -0.17191200    3.00752200   -0.76324800
 O                 -1.07584900    1.38430200    1.88524700
 H                 -1.89184300    1.02352900    2.27547400

