%NPROCS=4
# opt=(MaxCycle=1000) freq B3LYP/6-31G(d)

 ./chairs/2/glo_2w_alpha_ircr_chair2_B3LYP_631Gd.out

0  1
C          -0.85716        -0.69712        -0.70794
O          -0.59266         0.35919         0.59662
C           0.35280        -1.63749        -0.61285
C           1.72922        -0.98573        -0.41059
C           1.75501        -0.04157         0.79971
C           0.67080         1.04784         0.72728
H           0.36464        -2.18147        -1.57689
H           2.72334         0.46516         0.83275
H           0.65415         1.51794         1.71625
H           2.46215        -1.78172        -0.22323
O           0.10089        -2.53928         0.45297
O           2.09885        -0.22381        -1.56813
O           1.63625        -0.78833         1.99607
H           2.21893        -0.82917        -2.31600
H          -0.88489        -2.54684         0.49068
H           0.94648        -1.46297         1.83517
C           0.83910         2.12782        -0.36918
O           2.19440         2.47032        -0.58866
H           0.32647         3.04080        -0.04888
H           0.35957         1.79397        -1.29734
H           2.56333         1.73658        -1.11188
H          -0.81209         0.01957        -1.54073
O          -1.96008        -1.28874        -0.45096
H          -3.18239        -0.44192        -0.75200
H          -1.44796         0.96016         0.73843
O          -3.89286         0.28758        -0.79287
H          -4.71795        -0.13673        -0.51464
O          -2.65561         1.68204         0.89538
H          -3.00479         1.49976         1.78138
H          -3.28740         1.21530         0.23888

