%NPROCS=4
# opt=(MaxCycle=1000) freq B3LYP/6-31G(d)

 ./chairs/1/glo_1w_beta_ircr_chair_B3LYP_631Gd.out

0  1
C          -0.02078         1.64355        -0.95902
O           0.17791         1.61287         0.48947
H           3.42267         1.39121        -0.10634
O           0.63696         2.73669        -1.46092
H           1.59554         2.62908        -1.27263
O           2.94387         2.22278         0.03015
H           2.15942         1.97693         0.55800
C           0.45305         0.29037        -1.50165
C          -0.30544        -0.86409        -0.83684
C          -0.19763        -0.79531         0.68943
C          -0.58734         0.62006         1.16430
C          -0.33176         0.85742         2.65220
O          -1.08573        -0.10887         3.39450
O           0.25939         0.24566        -2.89775
O           0.22978        -2.05241        -1.39088
O          -1.06840        -1.77652         1.25809
H          -1.09036         1.78520        -1.16241
H           1.52446         0.19164        -1.24982
H           0.33113        -0.70010        -3.12156
H          -0.41668        -2.78176        -1.23353
H          -1.16924        -1.55408         2.20448
H           0.84626        -0.99978         0.97913
H          -1.66010         0.76526         0.95916
H          -0.63451         1.87982         2.91135
H           0.74515         0.75397         2.85193
H          -0.85501        -0.03169         4.33203
O          -1.58286        -3.89409        -0.43950
H          -1.03930        -4.63823        -0.13814
H          -1.37214        -0.76338        -1.09829
H          -1.58053        -3.26956         0.31873

