%NPROCS=4
# opt=(MaxCycle=1000) freq B3LYP/6-31G(d)

 ./chairs/1/glo_2w_beta_ircf_chair_B3LYP_631Gd.out

0  1
C           0.67195         0.27987        -1.04889
O           0.73667         0.25109         0.42411
O           1.95108         0.28008        -1.52084
H           2.30121         1.20703        -1.55237
H           1.65726         3.03807         1.43214
H           3.94401         2.69242        -1.50716
O           3.00178         2.78725        -1.29993
H           2.95102         2.75871        -0.31255
O           2.35377         2.37248         1.32225
H           1.86989         1.55572         1.05586
C          -0.06602        -0.97061        -1.53006
C          -1.42274        -1.08953        -0.84308
C          -1.28828        -1.07687         0.67132
C          -0.51747         0.18187         1.10360
H           0.10780         1.18417        -1.33368
H           0.55463        -1.84015        -1.26309
H          -0.71313        -1.96352         0.98446
H          -1.13895         1.06410         0.86177
H          -2.03702        -0.22100        -1.13634
O          -0.23571        -0.87136        -2.93225
O          -2.02701        -2.28913        -1.31120
O          -2.60674        -1.11215         1.20254
H          -2.86076        -2.38334        -0.82118
H          -0.85782        -1.57988        -3.16897
H          -2.51039        -1.03878         2.17042
C          -0.18767         0.17519         2.60211
O          -1.35857         0.04584         3.41573
H           0.38911         1.07029         2.87165
H           0.43303        -0.69682         2.82635
H          -1.84570         0.88445         3.37711

