# opt freq UHF/gen gfprint

LITHIUM_2.0352395689057494_2.3229960557437996_1.0_0.7254839357281992_1.0_

0 2
Li

Li 0
STO 1S 6 2.0352395689057494
STO 2S 3 2.3229960557437996
STO 2P 3 1.0
STO 2S 1 0.7254839357281992
STO 2P 1 1.0
****



