# opt freq UHF/gen gfprint

HELIUM_2.23417665460008_1.0960354796509624_

0 1
He

He 0
STO 1S 3 2.23417665460008
STO 1S 1 1.0960354796509624
****



