# opt freq UHF/gen gfprint

HELIUM_2.2078745339838597_1.0999289152662124_

0 1
He

He 0
STO 1S 3 2.2078745339838597
STO 1S 1 1.0999289152662124
****



