# opt freq UHF/gen gfprint

HYDROGEN_1.0150572014874548_0.9998662529822152_

0 2
H

H 0
STO 1S 3 1.0150572014874548
STO 1S 1 0.9998662529822152
****



