# opt freq UHF/gen gfprint

LITHIUM_1.7272276824857498_2.0420484749658_1.0_0.8280622104041995_1.0_

0 2
Li

Li 0
STO 1S 6 1.7272276824857498
STO 2S 3 2.0420484749658
STO 2P 3 1.0
STO 2S 1 0.8280622104041995
STO 2P 1 1.0
****



