# opt freq UHF/gen gfprint

LITHIUM_2.0842628939182495_2.3406964507112997_1.0_0.7227090404706993_1.0_

0 2
Li

Li 0
STO 1S 6 2.0842628939182495
STO 2S 3 2.3406964507112997
STO 2P 3 1.0
STO 2S 1 0.7227090404706993
STO 2P 1 1.0
****



