# opt freq UHF/gen gfprint

HELIUM_2.20731016156536_1.1010401554572125_

0 1
He

He 0
STO 1S 3 2.20731016156536
STO 1S 1 1.1010401554572125
****



