# opt freq UHF/gen gfprint

FLUORINE_1.0_1.0_1.0_1.01_1.0_

0 2
F

F 0
STO 1S 6 1.0
STO 2S 3 1.0
STO 2P 3 1.0
STO 2S 1 1.01
STO 2P 1 1.0
****



