# opt freq UHF/gen gfprint

HELIUM_1.9073101615653598_1.1010401554572125_

0 1
He

He 0
STO 1S 3 1.9073101615653598
STO 1S 1 1.1010401554572125
****



