# opt freq UHF/gen gfprint

HELIUM_2.487250542691361_1.0963810561677123_

0 1
He

He 0
STO 1S 3 2.487250542691361
STO 1S 1 1.0963810561677123
****



