# opt freq UHF/gen gfprint

HELIUM_2.1911338169241605_1.1099448707473623_

0 1
He

He 0
STO 1S 3 2.1911338169241605
STO 1S 1 1.1099448707473623
****



