# opt freq UHF/gen gfprint

HELIUM_2.5073101615653597_1.1010401554572125_

0 1
He

He 0
STO 1S 3 2.5073101615653597
STO 1S 1 1.1010401554572125
****



