# opt freq UHF/gen gfprint

HELIUM_2.2111338169241606_1.1299448707473623_

0 1
He

He 0
STO 1S 3 2.2111338169241606
STO 1S 1 1.1299448707473623
****



