# opt freq UHF/6-31G gfprint

HYDROGEN_1.025066621084275_0.9998721284649301_

0 2
H

H 0
STO 1S 3 1.025066621084275
STO 1S 1 0.9998721284649301
****



