# opt freq UHF/gen gfprint

HYDROGEN_1.015061459932555_1.0498690751669901_

0 2
H

H 0
STO 1S 3 1.015061459932555
STO 1S 1 1.0498690751669901
****



