# opt freq UHF/gen gfprint

HYDROGEN_0.9650614599325549_0.9998690751669902_

0 2
H

H 0
STO 1S 3 0.9650614599325549
STO 1S 1 0.9998690751669902
****



