# opt freq UHF/gen gfprint

HYDROGEN_1.015066621084275_0.9898721284649301_

0 2
H

H 0
STO 1S 3 1.015066621084275
STO 1S 1 0.9898721284649301
****



