# opt freq UHF/gen gfprint

HYDROGEN_1.015061459932555_0.9498690751669902_

0 2
H

H 0
STO 1S 3 1.015061459932555
STO 1S 1 0.9498690751669902
****



