# opt freq UHF/gen gfprint

LITHIUM_1.8277661843442499_2.0396246160738_1.0_0.8290018152981995_1.0_

0 2
Li

Li 0
STO 1S 6 1.8277661843442499
STO 2S 3 2.0396246160738
STO 2P 3 1.0
STO 2S 1 0.8290018152981995
STO 2P 1 1.0
****



