%NPROCS=4
# opt=(calcfc,ts,noeigentest,maxcycle=1000,cartesian) b3lyp 6-31g(d) freq

 ./5/glo_1w_alpha_boat5_b3lyp_631Gd_iopt.out

0  1
O           1.38360         0.73872        -0.68394
C           0.43946        -0.77169         1.05623
C          -0.94794         0.03525        -0.96609
C          -0.91539        -0.85574         0.29460
C           0.04064         1.19397        -0.84746
C           1.61315        -0.44809         0.12264
H          -1.68592        -0.50173         0.99361
H           2.47629        -0.20655         0.75740
H           0.65376        -1.75054         1.50084
H          -0.63868        -0.58058        -1.81577
C           2.00014        -1.60873        -0.80968
H           2.70663        -1.23178        -1.56390
H           1.12119        -1.99743        -1.32962
O           2.53075        -2.70830        -0.07964
H           3.40020        -2.44620         0.26252
O          -2.23903         0.51035        -1.29519
H          -2.55404         1.05292        -0.54642
O          -1.22151        -2.17497        -0.16033
H          -1.19064        -2.77090         0.60557
O           0.36725         0.14423         2.13715
H           0.06011         0.98770         1.74484
H           0.05650         1.77633        -1.77433
O          -0.37543         2.01245         0.23028
H           0.25726         2.77108         0.26078
O          -4.25108        -0.03941         0.49731
H          -4.24833        -0.68807         1.22468
H          -3.88300        -0.52461        -0.26858
O           1.98835         3.37893         0.11106
H           2.41522         3.47316         0.97540
H           2.20993         2.47143        -0.18210

