%NPROCS=4
# opt=(calcfc,ts,noeigentest,maxcycle=1000,cartesian) b3lyp 6-31g(d) freq

 ./5/glo_1w_alpha_boat5_b3lyp_631Gd_iopt.out

0  1
O           1.53072         0.41478        -0.69630
C           0.24463        -0.83769         1.03538
C          -0.89866         0.37196        -0.93034
C          -1.09782        -0.48823         0.32946
C           0.35822         1.23049        -0.79648
C           1.44263        -0.81172         0.07632
H          -1.68618         0.08146         1.06002
H           2.34908        -0.83439         0.69601
H           0.18381        -1.85847         1.42969
H          -0.73038        -0.30248        -1.77576
C           1.48342        -2.01492        -0.88168
H           2.26351        -1.83911        -1.63651
H           0.52981        -2.13434        -1.40160
O           1.68606        -3.23269        -0.17433
H           2.58810        -3.22367         0.18270
O          -2.03230         1.13563        -1.28480
H          -2.36898         1.58284        -0.48921
O          -1.83924        -1.63555        -0.09907
H          -1.96382        -2.21297         0.67136
O           0.46275         0.00741         2.15440
H           0.39815         0.91981         1.80396
H           0.51209         1.82203        -1.70453
O           0.21573         2.08368         0.32102
H           1.02790         2.64606         0.33831
O          -4.14921         0.47762         0.42342
H          -4.50420        -0.08992         1.12307
H          -3.72722        -0.13767        -0.20032
O           2.85470         2.78684         0.12259
H           3.28386         2.71007         0.98866
H           2.81619         1.86959        -0.21729

