# opt freq hf/gen

ch2ch2

0 1
C  
C   1 B1
H   1 B2 2 A2
H   1 B3 2 A3 3 D3
H   2 B4 1 A4 3 D4
H   2 B5 1 A5 3 D5
Variables:
B1        1.33117
B2        1.08558
A2      120.28377
B3        1.08558
A3      120.28377
D3      180.02562
B4        1.08558
A4      120.28377
D4      359.97438
B5        1.08558
A5      120.28377
D5      179.97438

H 0
STO 1S 3 1.173875
STO 1S 1 0.718591
****
C 0
STO 1S 6 5.685038
STO 2S 3 1.642076
STO 2P 3 2.055640
STO 2S 1 0.946446
STO 2P 1 0.980425
****


