# opt freq hf/gen

ch3ch3

0 1
C  
C   1 B1
H   1 B2 2 A2
H   1 B3 2 A3 3 D3
H   1 B4 2 A4 3 D4
H   2 B5 1 A5 3 D5
H   2 B6 1 A6 3 D6
H   2 B7 1 A7 3 D7
Variables:
B1        1.51938
B2        1.11035
A2      109.82580
B3        1.11035
A3      109.82580
D3      240.00000
B4        1.11035
A4      109.82580
D4      120.00000
B5        1.11035
A5      109.82580
D5       60.00000
B6        1.11035
A6      109.82580
D6      300.00000
B7        1.11035
A7      109.82580
D7      179.97438

H 0
STO 1S 3 1.173875
STO 1S 1 0.718591
****
C 0
STO 1S 6 5.685038
STO 2S 3 1.642076
STO 2P 3 2.055640
STO 2S 1 0.946446
STO 2P 1 0.980425
****


