# opt freq hf/gen

density at points

0 1
     6  -0.655547    -0.019757     0.000011
     8   0.736957     0.120594     0.000008
     1  -1.012314    -0.549927    -0.879844
     1  -1.013422    -0.536599     0.887336
     1  -1.076573     0.975921    -0.007783
     1   1.139933    -0.735608     0.000160

H 0
STO 1S 3 1.173875
STO 1S 1 0.718591
****
C 0
STO 1S 6 5.685038
STO 2S 3 1.642076
STO 2P 3 2.055640
STO 2S 1 0.946446
STO 2P 1 0.980425
****
O 0
STO 1S 6 7.668943
STO 2S 3 2.318057
STO 2P 3 2.961287
STO 2S 1 1.182671
STO 2P 1 1.327073
****

