# opt=cartesian freq hf/gen

chch

0 1
C         -6.59034        1.19069        0.00000
C         -5.38634        1.24766        0.00000
H         -7.64754        1.14067        0.00000
H         -4.32914        1.29768       -0.00000

H 0
STO 1S 3 1.173875
STO 1S 1 0.718591
****
C 0
STO 1S 6 5.685038
STO 2S 3 1.642076
STO 2P 3 2.055640
STO 2S 1 0.946446
STO 2P 1 0.980425
****


