# opt freq hf/gen

H2 density at nuclei

0 1
H                  0.00000000    0.00000000     0.37000000
H                  0.00000000    0.00000000    -0.37000000

H 0
STO 1S 3 1.173875
STO 1S 1 0.718591
****


