# opt freq hf/6-31g

H2 density at nuclei

0 1
H                  0.00000000    0.00000000     0.37000000
H                  0.00000000    0.00000000    -0.37000000


