# opt hf/gen

H2

0 1
H
H 1 0.7

H 0
STO 1S 3 0.988982
STO 1S 1 8.610827
****


