# opt freq hf/gen

h2o

0 1
O  
H   1 B1
H   1 B2 2 A2
Variables:
B1        0.99025
B2        0.99025
A2      104.51001

H 0
STO 1S 3 1.173875
STO 1S 1 0.718591
****
O 0
STO 1S 6 7.668943
STO 2S 3 2.318057
STO 2P 3 2.961287
STO 2S 1 1.182671
STO 2P 1 1.327073
****


