# b3lyp/6-31g(d) opt freq

glo_2w_alpha_ircf_boat4_B3LYP_631Gd

0 1
  8  -0.643444     0.325930     0.543265
  6   1.645876     0.210692    -0.248096
  6   0.223092    -1.904754    -0.203762
  6   1.558419    -1.248394     0.204596
  6  -0.875363    -0.866198    -0.496396
  6   0.581749     1.064081     0.451192
  1   1.607999    -1.274090     1.303821
  1   0.931870     1.235970     1.480026
  1   1.500223     0.247532    -1.340794
  6   0.378716     2.420927    -0.247691
  1   0.045044     2.261549    -1.278153
  1  -0.391551     3.011572     0.264352
  1   0.407860    -2.454066    -1.142477
  8   1.614187     3.146593    -0.346022
  1   1.808668     3.516785     0.529818
  8  -0.203294    -2.780963     0.816560
  1  -1.175819    -2.792657     0.753816
  8   2.623995    -1.988092    -0.368497
  1   3.419549    -1.446114    -0.226994
  8   2.953201     0.672629     0.071169
  1   2.997729     1.584724    -0.269754
  1  -0.753108    -0.380551    -1.472419
  8  -2.097958    -1.372559    -0.288147
  8  -3.803583     0.273890    -0.881355
  1  -2.841277    -0.749777    -0.634616
  1  -3.516042     0.910954    -0.141439
  1  -4.690686    -0.050504    -0.668550
  8  -2.727500     1.583032     0.876341
  1  -1.849534     1.087644     0.801709
  1  -3.069804     1.357127     1.754453
 
