# OPT B3LYP 6-31G FREQ

 CO.LOG

0  1
C           0.00000         0.00000         0.00000
O           0.00000         0.00000         1.12800

