# b3lyp/6-31g(d) opt freq

glo_1w_beta_ircr_boat6_B3LYP_631Gd

0 1
  6   0.871809     0.745192    -0.557709
  6  -1.426518    -0.380705    -0.553999
  6  -0.574258     0.822454    -0.056871
  6  -0.581176    -1.584899    -1.023323
  1  -1.221324    -2.478826    -0.990303
  1  -2.045712    -0.027768    -1.386339
  1   0.896620     0.769828    -1.650652
  1  -0.541032     0.745220     1.042726
  6   0.565996    -1.761508    -0.039339
  1   1.268500    -2.547800    -0.333927
  8   1.464866    -0.512435    -0.139493
  6   1.702205     1.915036    -0.033436
  1   1.221808     2.834317    -0.391783
  1   1.667220     1.932317     1.071246
  8   3.032302     1.776305    -0.508063
  1   3.515723     2.582825    -0.274775
  8   0.073238    -1.914437     1.238550
  8  -0.007020    -1.404776    -2.309856
  1  -0.730360    -1.381283    -2.955212
  8  -2.328614    -0.826271     0.470345
  1  -1.746911    -1.268695     1.124864
  8  -1.120867     2.062023    -0.452701
  1  -1.970327     2.153456     0.039643
  8   2.036675    -0.866741     2.188605
  1   0.830696    -1.647304     1.861857
  1   1.811620    -0.133633     2.780065
  1   2.047208    -0.497808     1.256876
  8  -3.416072     1.651842     1.039091
  1  -4.241958     1.729425     0.538346
  1  -3.194510     0.692328     1.007353
 
