# b3lyp/6-31g(d) opt freq

glo_2w_beta_ircf_boat6_B3LYP_631Gd

0 1
  6  -1.119628     0.735963    -0.196797
  6  -0.443795    -1.502243     0.842743
  6  -1.365881    -0.259333     0.959088
  6  -0.210071    -1.803639    -0.649469
  1   0.369766    -2.727915    -0.759823
  1  -0.964579    -2.347291     1.318655
  1  -1.779497     0.471796    -1.029206
  1  -1.187155     0.216701     1.933495
  6   0.687595    -0.654916    -1.194471
  1   0.609453    -0.562702    -2.283965
  8   0.244389     0.649766    -0.645684
  6  -1.448675     2.165723     0.214894
  1  -2.435812     2.133194     0.704502
  1  -0.711540     2.515784     0.954396
  8  -1.464001     2.980049    -0.944640
  1  -1.642086     3.891155    -0.667710
  8   1.981865    -0.930681    -0.774674
  8  -1.423947    -1.948483    -1.370103
  1  -2.165912    -1.681842    -0.797328
  8   0.798962    -1.304006     1.511746
  1   1.498765    -1.335068     0.813632
  8  -2.744437    -0.648500     0.833326
  1  -2.980550    -1.185773     1.607162
  8   1.782285     1.267183     1.331843
  1   3.074113     1.067972     0.585368
  1   1.513503     0.445792     1.788607
  1   1.201016     1.237875     0.534119
  8   3.660125     0.781061    -0.184440
  1   2.651410    -0.161678    -0.763792
  1   4.398775     0.283698     0.196443
 
