%NPROCS=4
# opt=(MaxCycle=1000) freq B3LYP/6-31G(d)

 ./boats/1/glo_1w_beta_ts_boat1_B3LYP_631Gd.out

0  1
H          -0.03949         1.58585         1.43304
C          -0.49249         1.11035         0.54998
C           1.12399        -0.75480         0.05618
C          -1.32516        -1.47863         0.08371
C           0.08205        -1.78300        -0.41286
O          -1.26215         0.01164         1.01467
C           0.67933         0.65594        -0.34428
H          -1.61925        -2.07321         0.95191
H           0.06318        -1.75124        -1.51332
H           0.36897         0.62867        -1.40062
C          -1.34657         2.16720        -0.17099
H          -2.13990         2.53875         0.49528
H          -1.81263         1.70982        -1.05580
O          -2.23236        -1.32207        -0.87548
H           1.20274        -0.81428         1.15284
O          -0.46458         3.23365        -0.54537
H          -0.92138         3.81887        -1.16702
O           0.44697        -3.07157         0.05088
H           1.40114        -3.12878        -0.14065
O           2.32082        -1.17896        -0.56451
H           3.08158        -0.72139        -0.13470
O           1.75944         1.58308        -0.20755
H           1.38721         2.45142        -0.44951
O          -3.66648        -0.06460         0.62501
H          -3.06475        -0.97492        -0.41132
H          -2.74957         0.19180         0.96137
O           4.14413         0.50539         0.62555
H           3.44788         1.14065         0.35124
H           4.08273         0.48157         1.59249
H          -4.05991         0.71875         0.21512

