%NPROCS=4
# opt=(MaxCycle=1000) freq B3LYP/6-31G(d)

 ./boats/1/glo_1w_alpha_ts_boat1_B3LYP_631Gd.out

0  1
H          -0.26673         1.30381         1.16770
C          -0.06862         1.22558         0.08713
C           0.68783        -1.22514         0.32041
C          -1.50812        -0.88167        -0.88075
C          -0.82561        -1.51701         0.31700
O          -1.22321         0.80465        -0.63257
C           1.05183         0.20583        -0.14255
H          -0.93978        -2.60638         0.22293
H           1.23503         0.15772        -1.22772
C           0.28579         2.62145        -0.45938
H          -0.56638         3.29595        -0.30553
H           0.46750         2.53526        -1.53924
H           1.03238        -1.30791         1.36656
O           1.45259         3.12174         0.22185
H           1.74803         3.92664        -0.22940
O          -1.46791        -1.04508         1.50564
H          -1.16127        -1.59514         2.24237
O           1.27721        -2.21092        -0.50025
H           2.25494        -2.07222        -0.49221
O           2.25237         0.58156         0.54660
H           2.34934         1.55176         0.44458
H          -0.96952        -1.08567        -1.80796
O          -2.81976        -1.02834        -1.02506
O          -3.37706         0.72795         0.55962
H          -3.28214        -0.46543        -0.30161
H          -2.53192         1.05506         0.14279
H          -3.06623         0.33560         1.39285
O           3.92775        -1.43801        -0.21727
H           3.55364        -0.57709         0.08255
H           4.27944        -1.84430         0.58929

