# b3lyp/6-31g(d) opt freq

glo_1w_beta_ircf_boat2_B3LYP_631Gd

0 1
  6   1.627039    -0.573794    -1.073908
  8   0.945954     1.003970    -0.849708
  1   3.333559     1.965521     0.513676
  8   2.873732    -0.535425    -0.607353
  1   2.907106     0.025230     0.239527
  8   2.651703     1.371100     0.863948
  1   1.880373     1.466370     0.229915
  6  -0.666876     0.298312     0.833346
  6  -0.430151     1.030410    -0.502233
  6  -0.925471     2.488044    -0.444598
  8  -2.344136     2.548097    -0.186317
  8  -2.071146     0.085029     1.057262
  1   1.595388    -0.648387    -2.162973
  1  -2.504460     0.936445     0.835099
  1  -0.267198     0.925061     1.647260
  1  -1.004799     0.505225    -1.275601
  1  -0.674881     3.005282    -1.378582
  1  -0.453821     3.028897     0.382088
  1  -2.801545     2.314451    -1.010327
  8  -2.824901    -2.265158    -0.227800
  1  -2.732799    -1.405720     0.244450
  1  -3.010015    -2.912997     0.468165
  6   0.059575    -1.069830     0.909271
  1  -0.691406    -1.807445     1.230584
  6   0.628705    -1.551664    -0.441284
  1   1.189974    -2.479124    -0.241809
  8   1.155397    -1.056047     1.812675
  1   0.845156    -0.722572     2.668380
  8  -0.381503    -1.746216    -1.410399
  1  -1.176093    -2.160771    -1.002444
 
