%NPROCS=4
# opt=(MaxCycle=1000) freq B3LYP/6-31G(d)

boat2_Beta_B3LYP_6-31G_d

0 1
 H                  1.15120900   -0.21502000   -1.56990100
 C                  1.05056600   -0.37783200   -0.49002500
 C                 -0.59109000    0.88853900    1.01874700
 C                 -1.40375500   -0.88656100   -0.64937900
 C                 -1.72342900    0.42570300    0.08436000
 O                 -0.06076400   -1.32133300   -0.28256500
 C                  0.73081200    0.93441400    0.24377100
 H                 -0.82558100    1.90263500    1.36588400
 H                 -1.45536900   -0.77733400   -1.73824900
 H                 -2.64135000    0.29529100    0.66932700
 H                  1.54155000    1.22000800    0.92421200
 C                  2.32001400   -1.03459600    0.04792900
 H                  2.47070600   -2.01091200   -0.42538400
 H                  2.24928900   -1.20135700    1.12857300
 O                 -2.29732200   -1.91027600   -0.24395800
 H                 -2.08247200   -2.66636200   -0.81409900
 O                  3.45102900   -0.21356900   -0.22686500
 H                  4.22585500   -0.67965400    0.13589300
 O                 -2.02570000    1.45875600   -0.87651000
 H                 -1.17346600    1.88265900   -1.12002000
 O                 -0.44615100    0.07129300    2.18195500
 H                 -1.33814200   -0.16444100    2.49405400
 O                  0.63285800    1.98644100   -0.74347200
 H                  1.54746900    2.14600800   -1.05138200

