%NPROCS=4
# opt=maxcycle=1000 freq b3lyp/6-31g(d) geom=connectivity

boat6_Alpha_B3LYP_6-31G_d

0 1
 O                  0.02389900   -1.34482900   -1.05018500
 C                 -0.46058600   -0.02329700    1.05039000
 C                  1.29060800    0.77391200   -0.58771000
 C                  0.21908400    1.19207300    0.43193000
 C                  1.31214600   -0.75863200   -0.85138000
 C                 -1.04762500   -0.92666800   -0.03054500
 H                  0.70934900    1.75001400    1.23939900
 H                 -1.35822100   -1.87146800    0.43141900
 H                 -1.29890500    0.34142900    1.65582600
 H                  1.03472300    1.24277900   -1.54734700
 C                 -2.22373800   -0.35729300   -0.82749700
 H                 -2.66652000   -1.13766200   -1.45744700
 H                 -1.89769600    0.42542200   -1.51882400
 O                 -3.23207000    0.17279900    0.02418700
 H                 -3.71199300   -0.58253400    0.40954600
 O                  2.58905100    1.27170000   -0.24601800
 H                  2.50037900    2.23562700   -0.13772600
 O                 -0.68710000    2.11615400   -0.17615600
 H                 -1.46800200    2.20543200    0.40313100
 O                  0.35592800   -0.71678500    1.99192000
 H                  1.10445700   -1.12820000    1.50565200
 O                  2.07625997   -0.98771347   -2.03820413
 H                  2.84769445   -0.41632152   -2.03793577
 H                  1.80401976   -1.29313664   -0.06571786

 1 5 1.0 6 1.0
 2 4 1.0 6 1.0 9 1.0 20 1.0
 3 4 1.0 5 1.0 10 1.0 16 1.0
 4 7 1.0 18 1.0
 5 22 1.0 24 1.0
 6 8 1.0 11 1.0
 7
 8
 9
 10
 11 12 1.0 13 1.0 14 1.0
 12
 13
 14 15 1.0
 15
 16 17 1.0
 17
 18 19 1.0
 19
 20 21 1.0
 21
 22 23 1.0
 23
 24

