%NPROCS=4
# opt=(MaxCycle=1000) freq B3LYP/6-31G(d)

boat3_Alpha_B3LYP_6-31G_d

0 1
 C                 -0.78593500    0.45164500    0.98442400
 C                  1.08811100    0.30124100   -0.80395300
 O                 -0.16254100   -1.80226600    0.06833300
 C                  1.12417100   -1.20551400   -0.52404500
 C                 -1.15629000   -0.74405400    0.20890600
 C                  0.50083300    1.04827200    0.39201100
 H                  1.27161000    1.10970100    1.17196500
 H                  0.53234600    0.52716300   -1.71543700
 H                 -1.90179200   -1.24444400    0.84594400
 H                 -1.58861600    1.19387800    1.02990000
 C                 -1.93876200   -0.53068400   -1.10336300
 H                 -2.33462200   -1.48906100   -1.46078600
 H                 -1.32210900   -0.15336100   -1.91760400
 O                 -3.02374900    0.37117000   -0.93217700
 H                 -3.71201700   -0.08770000   -0.41729200
 O                  2.42772600    0.77832500   -1.04631000
 H                  2.34158400    1.75269100   -1.09934600
 O                  0.29582800    2.41450800   -0.01359700
 H                 -0.03123800    2.89441600    0.77110400
 O                 -0.50830300    0.07564200    2.34626200
 H                  0.05108300   -0.72847700    2.31675400
 H                  1.34798900   -1.78360800   -1.42575700
 O                  2.15432900   -1.46782500    0.42864100
 H                  2.88669700   -0.87307700    0.16745800

