# OPT B3LYP 6-31G FREQ

 FH.LOG

0  1
F           0.00000         0.00000         0.09254
H           0.00000         0.00000        -0.83286

