# OPT B3LYP 6-31G FREQ

 NH3.LOG

0  1
N           0.00000         0.00000         0.11921
H           0.00000         0.93722        -0.27814
H           0.81165        -0.46861        -0.27814
H          -0.81165        -0.46861        -0.27814

