# b3lyp/6-31g(d) opt freq

glo_1w_alpha_ircf_boat1_B3LYP_631Gd

0 1
  1  -0.266735     1.303813     1.167696
  6  -0.068616     1.225579     0.087127
  6   0.687834    -1.225140     0.320413
  6  -1.508118    -0.881674    -0.880747
  6  -0.825610    -1.517008     0.317004
  8  -1.223210     0.804646    -0.632574
  6   1.051831     0.205833    -0.142545
  1  -0.939776    -2.606377     0.222935
  1   1.235028     0.157718    -1.227721
  6   0.285792     2.621450    -0.459376
  1  -0.566380     3.295950    -0.305531
  1   0.467496     2.535262    -1.539236
  1   1.032379    -1.307909     1.366563
  8   1.452587     3.121737     0.221848
  1   1.748033     3.926643    -0.229397
  8  -1.467910    -1.045077     1.505635
  1  -1.161270    -1.595143     2.242374
  8   1.277210    -2.210918    -0.500247
  1   2.254937    -2.072220    -0.492211
  8   2.252366     0.581564     0.546595
  1   2.349344     1.551759     0.444581
  1  -0.969515    -1.085671    -1.807962
  8  -2.819764    -1.028341    -1.025065
  8  -3.377057     0.727946     0.559618
  1  -3.282137    -0.465435    -0.301607
  1  -2.531919     1.055064     0.142794
  1  -3.066229     0.335604     1.392853
  8   3.927749    -1.438006    -0.217273
  1   3.553639    -0.577093     0.082547
  1   4.279441    -1.844300     0.589288
 
